176
MD Time 1591.64
C          10.83825562       13.18319388       10.09253518
C           9.06936187       11.54710449       10.05346390
C           9.96306281       10.52172096       10.02772748
C          11.35169899       10.81619676       10.15449580
C          11.75710032       12.14265618       10.12647172
C          13.08088833       12.70413085       10.05074238
N          12.99602941       14.15887103        9.97306258
N          14.20062567       12.04295139        9.87446860
N          17.65804491       15.38659934        8.90781619
C          15.38921073       12.56804550        9.47455098
C          16.60100478       11.89799922        9.16594043
C          16.97863839       10.54346667        9.25633720
C          18.29066630       10.11090618        9.16358798
C          19.25133237       11.12182594        8.78891787
C          18.92787565       12.48483402        8.68799217
C          17.57263598       12.91695478        8.83347883
C          16.99365406       14.23225996        9.07411235
N          15.65078222       13.96552731        9.41713733
C          11.61072443       14.40118566       10.09350954
C           9.49911668       12.92274545       10.02841484
C          17.11083834       16.61226641        9.04145222
C          19.28657343       18.05077379        8.64563942
C          13.40264845       18.40368025       10.15640612
C          12.14419984       19.11357138       10.21831491
C          11.82096176       20.48032282       10.31773237
C          10.51919591       20.87188555       10.33397243
C           9.50916749       19.87000447       10.22170062
C           9.75298457       18.54096268       10.21688636
C          11.09969262       18.14844131       10.19878863
C          11.71103948       16.75731643       10.11256514
N          13.11283378       17.01109106       10.04670998
N          11.06769576       15.60185896       10.06420712
C          17.91928796       17.85250614        9.01258565
C          19.76867457       19.35617543        8.63510317
C          18.91498697       20.36693758        9.05001614
C          17.53636590       20.17853886        9.44258550
C          17.02425972       18.87347312        9.44698368
C          15.72309226       18.28804431        9.71292294
N          15.80003826       16.95057397        9.44744287
N          14.62067366       18.96390232       10.11712009
H          13.75365027       16.20618248       10.05543280
H          14.88732002       14.54212226        9.74050008
H          10.30704543       21.94839478       10.23802017
H          12.65092454       21.21926755       10.37583984
H          16.83261312       20.98929353        9.66683535
H          19.27991458       21.39719493        9.19121811
H          20.86872437       19.48283778        8.50349217
H          19.94672673       17.16580620        8.37857558
H          19.64567964       13.20430048        8.39393245
H          20.36750745       10.89274580        8.80592719
H          18.45925491        9.06294596        9.34213032
H          16.14647631        9.89424563        9.54939849
H          12.14348878       10.04339864       10.37173673
H           9.68806446        9.48306936        9.99101246
H           8.02067297       11.30735533        9.99388251
H           8.71492207       13.79582916       10.04989370
H           8.90544331       17.81439149       10.10491036
H           8.47266704       20.30087491       10.18537901
C          10.24805061       11.73726583       13.21474453
C           8.52918286       10.00080827       13.33543721
C           9.53358547        8.98960639       13.36240326
C          10.89404873        9.38833254       13.46435012
C          11.22818591       10.76646057       13.31605805
C          12.54582928       11.44624320       13.27826268
N          12.31728249       12.81093545       13.04200503
N          13.77148516       10.90009726       13.28261930
N          17.24042458       14.20638864       12.19015762
C          14.90902359       11.50634143       12.93322348
C          16.25128626       10.86596075       12.90332289
C          16.52949121        9.50291344       13.11921828
C          17.91740165        9.14895428       13.14170003
C          18.92139959       10.06127092       12.79697278
C          18.59547178       11.39756453       12.42651704
C          17.25125495       11.79331434       12.55894681
C          16.57867393       13.09650130       12.50462509
N          15.20592521       12.91236235       12.71558612
C          10.96174644       13.04323071       13.06303477
C           8.83992276       11.35376555       13.18733964
C          16.71773297       15.44582898       12.40444360
C          18.70959703       17.05403987       12.11320782
C          12.77719006       16.99206119       13.12987012
C          11.51038049       17.68740921       13.31468299
C          11.27106621       19.04948993       13.52423584
C           9.93869254       19.47407307       13.66827680
C           8.83427916       18.55490848       13.43368776
C           9.10690459       17.21673654       13.17533000
C          10.46218443       16.75525919       13.12608847
C          11.04659191       15.41221479       13.05921017
N          12.41846614       15.66317103       12.99118873
N          10.40186924       14.24612906       12.98835920
C          17.37849367       16.70459996       12.49510606
C          19.08416815       18.41826204       12.24100139
C          18.09927187       19.37615324       12.62484761
C          16.74323364       19.03207782       12.93182510
C          16.41577391       17.68290632       12.88017585
C          15.17474756       16.98793926       12.83981727
N          15.31533765       15.59738217       12.62510249
N          13.95090940       17.55000197       13.11986497
H          13.10259966       14.93614533       12.90979168
H          14.54989391       13.65526504       12.44406875
H           9.66806077       20.54186905       13.77041401
H          12.10871355       19.81780884       13.64165128
H          16.00774914       19.82957395       13.02587024
H          18.33090543       20.44648996       12.69551820
H          20.06388400       18.75275886       11.92851445
H          19.41606438       16.38258433       11.69449016
H          19.45893627       11.99142610       12.14324485
H          19.99916694        9.74633396       12.80341222
H          18.16475247        8.09661572       13.17194416
H          15.75823277        8.75902185       13.39119975
H          11.63955388        8.57828127       13.55792558
H           9.30172489        7.94684448       13.50870528
H           7.49583592        9.69170883       13.34398898
H           8.09555389       12.16252820       13.21833064
H           8.34084777       16.49852953       12.87977982
H           7.81372950       18.95582756       13.53793776
C          13.22969924       14.05966133       22.21923505
C          14.61981478       13.90152059       22.48674829
C          15.40316569       15.05920499       22.34652539
C          14.91094391       16.34213770       21.99370214
C          13.55695362       16.44292775       21.58175073
C          12.74063265       15.28320301       21.73546385
C          12.77206562       12.79671030       21.55517829
C          13.95120326       11.82453067       21.38944417
C          15.05934031       12.59161887       21.95542083
C          16.33501618       12.37739910       21.37035338
C          16.75859395       14.90191892       21.70791002
C          15.88168499       16.94975786       20.96586353
C          15.44504205       17.67691711       19.88698441
C          14.02766778       17.86379855       19.59035698
C          13.08913882       17.25462919       20.43571861
C          11.88160140       16.57143818       19.88617641
C          11.76722236       15.34018571       20.65607959
C          11.35384955       14.12458013       20.07699575
C          11.80465491       12.82195926       20.54745342
C          14.09344787       11.04718145       20.24674903
C          13.08205388       11.08437064       19.17083804
C          11.90950192       11.92572903       19.27477932
C          11.47435188       12.70506198       18.06669648
C          11.13952767       14.06109964       18.59783410
C          11.29539367       15.23201576       17.90765012
C          11.72962654       16.48697052       18.49446765
C          12.69295762       17.15185865       17.63354449
C          13.82270233       17.85741560       18.18071481
C          16.98328917       16.09382031       20.90236961
C          16.45161124       16.00188869       16.28929570
C          17.45297670       15.92230844       17.33751750
C          18.04080777       14.60393106       17.81246822
C          17.59588809       13.44454725       17.17446602
C          16.58036300       13.55772912       16.11212216
C          14.65277927       14.88245891       15.41659331
C          14.09889396       16.18793670       15.82142251
C          15.31137054       16.85213809       16.43971938
C          15.15214392       17.66367604       17.58021722
C          16.12655963       17.57808326       18.61724629
C          17.18466450       16.68274419       18.50605157
C          18.09523811       14.65079641       19.20930791
C          17.87235253       13.48964294       19.94169184
C          17.50156763       12.23534162       19.33030500
C          17.32063859       12.19921119       17.91332590
C          16.15362484       11.54903506       17.33632359
C          15.70122268       12.34897660       16.20634206
C          14.33944650       12.47503095       15.99912676
C          13.81849751       13.79619460       15.60174163
C          12.87726820       16.32552847       16.43260843
C          11.97487718       15.11705160       16.60874657
C          12.39495090       13.87766491       16.10609317
C          12.19371912       12.64279528       16.85605860
C          13.35274390       11.76358891       16.74768159
C          13.82428746       10.99739923       17.87404911
C          15.22659251       10.93929781       18.20662794
C          15.41737169       10.91598261       19.62564115
C          16.53844929       11.55420209       20.18562695
C          17.65796194       15.94733920       19.67062999
C          17.19487533       13.59970898       21.19156849
C          16.04469312       14.75073161       15.68637181
