116
2H2Pc donor dimer; atoms 1-116 of full system
C   10.8929051800  13.0810690500  9.8476411000
C   9.1308191900  11.4561303600  10.0432148800
C   10.0740825500  10.4183640700  9.9368042300
C   11.4381898900  10.6952426200  9.7851804000
C   11.8395912000  12.0397397200  9.7422963100
C   13.1507788200  12.6965517900  9.6222758700
N   13.0079613100  14.0667082700  9.6570809100
N   14.3061783800  11.9967055900  9.5040347400
N   17.8579252500  15.2675310100  9.0405762500
C   15.5237615200  12.5526622000  9.3607520700
C   16.7797623500  11.8203571600  9.2738694100
C   17.0712909000  10.4426292800  9.3310009200
C   18.4066030600  10.0471778400  9.2605630900
C   19.4432228100  10.9975360900  9.1365152400
C   19.1671482400  12.3636231000  9.0780235200
C   17.8215367700  12.7768527900  9.1467755400
C   17.2036325700  14.0965262000  9.1450975400
N   15.8394334500  13.8984575500  9.2812419700
C   11.6622614300  14.3338205300  9.7854511700
C   9.5262246200  12.7986752200  10.0001656500
C   17.2624281400  16.4858001300  9.0767184500
C   19.4053199300  18.0198791600  8.9246910200
C   13.4124241800  18.2717987800  9.5881368200
C   12.1721365400  19.0005172300  9.8203765100
C   11.8961945800  20.3754023500  9.9614976000
C   10.5804889300  20.7634503000  10.2152102000
C   9.5460275100  19.8092918400  10.3282467400
C   9.8056622700  18.4459594900  10.1925117300
C   11.1313313100  18.0416250000  9.9367959300
C   11.7339857400  16.7242054100  9.7891455400
N   13.0886549900  16.9248693400  9.5841714400
N   11.0741704700  15.5531720800  9.8641049300
C   18.0331977300  17.7390162300  9.0197729100
C   19.8076088900  19.3609327000  8.9393242900
C   18.8649245800  20.3994031500  9.0475089400
C   17.4955398200  20.1238353800  9.1441884900
C   17.0876227500  18.7806532100  9.1289645600
C   15.7750752600  18.1241149500  9.2496510200
N   15.9175701200  16.7549459500  9.2028355400
N   14.6272006900  18.8261957200  9.4213298600
H   13.7715048700  16.1724815500  9.4722551500
H   15.1549709500  14.6550349400  9.3447001700
H   10.3432228300  21.8206265900  10.3331173100
H   12.6929092500  21.1139121400  9.8808052900
H   16.7692294300  20.9310905300  9.2373122300
H   19.2096791600  21.4335708400  9.0609427600
H   20.8672941900  19.6075222700  8.8706696700
H   20.1397150200  17.2179624500  8.8507159900
H   19.9697396200  13.0947894500  8.9886904000
H   20.4764274700  10.6537323100  9.0917986300
H   18.6589289700  8.9884054800  9.3118438800
H   16.2734595600  9.7093741200  9.4412166400
H   12.1680243400  9.8888645200  9.7175211300
H   9.7360459200  9.3834239300  9.9875141600
H   8.0775100500  11.2077144800  10.1734029000
H   8.7942052400  13.6003616400  10.0960338100
H   9.0095409100  17.7097509400  10.2944517000
H   8.5307402400  20.1473798300  10.5340795800
C   10.3284081300  11.8248169000  13.4126030500
C   8.6047891000  10.1695783200  13.6819465100
C   9.5658022600  9.1486440500  13.5675941800
C   10.9199026000  9.4499590000  13.3777941600
C   11.2926980900  10.8009325500  13.3001341000
C   12.5825341100  11.4811744300  13.1012408700
N   12.4067087700  12.8465176200  13.0817883400
N   13.7526726000  10.8033771300  13.0017053500
N   17.2364396400  14.1449583400  12.5158979600
C   14.9574754200  11.3840933700  12.8539695600
C   16.2353984500  10.6858524600  12.8484186900
C   16.5653012900  9.3199430500  12.9540693400
C   17.9130806200  8.9616202700  12.9245647500
C   18.9257804200  9.9371074300  12.7976306000
C   18.6125317300  11.2921499400  12.6955899200
C   17.2543317100  11.6656570400  12.7194202000
C   16.6020849200  12.9638233200  12.6328779600
N   15.2390875900  12.7332915700  12.7135149000
C   11.0651643600  13.0908872200  13.2739025200
C   8.9727105500  11.5185422900  13.6078351300
C   16.6192859300  15.3519230500  12.5100427700
C   18.7391180700  16.9206167600  12.4525462800
C   12.7398666000  17.0548574800  13.0376689800
C   11.5076755900  17.7597816700  13.3595240500
C   11.2260145200  19.1290425200  13.5346339800
C   9.9179765400  19.4984764600  13.8464807700
C   8.9004382700  18.5301823600  13.9885586600
C   9.1690133300  17.1713369100  13.8240810000
C   10.4860073000  16.7852697700  13.5045193400
C   11.0937081500  15.4806366400  13.2827221900
N   12.4300011500  15.7057068300  12.9960406700
N   10.4577682400  14.2987767000  13.3771966900
C   17.3701676400  16.6163680000  12.5115355400
C   19.1168928700  18.2681362500  12.4918035800
C   18.1543964400  19.2885272000  12.5940006300
C   16.7881049800  18.9892338500  12.6574320300
C   16.4043470700  17.6398789600  12.6115441600
C   15.1007427200  16.9604563400  12.6646775500
N   15.2644688900  15.5953429700  12.5771537700
N   13.9405863600  17.6353904800  12.8566704200
H   13.1003111000  14.9678142900  12.7711285200
H   14.5279242600  13.4663478100  12.6713562400
H   9.6719464600  20.5517005700  13.9796479300
H   12.0089339300  19.8771456900  13.4184693800
H   16.0445767700  19.7826727400  12.7284202200
H   18.4806031200  20.3283624400  12.6144592600
H   20.1722931900  18.5345405400  12.4336470900
H   19.4867241300  16.1323292400  12.3678048900
H   19.3939623400  12.0436119600  12.5918833800
H   19.9685051100  9.6211127800  12.7764366200
H   18.1934514200  7.9113238400  13.0009932500
H   15.7860066700  8.5653795500  13.0541204700
H   11.6610403100  8.6560255100  13.2873831800
H   9.2477974100  8.1076133300  13.6277668100
H   7.5581489700  9.9028062100  13.8296045600
H   8.2249556400  12.3069763200  13.6931453600
H   8.3827323000  16.4258879500  13.9371353200
H   7.8887149700  18.8541951200  14.2323213500
