60
C60 acceptor; atoms 117-176 of full system
C   13.3536085200  14.0476804500  22.3205659100
C   14.7883004500  13.9397821500  22.5596874800
C   15.6174904900  15.0731112500  22.4044552700
C   15.0388020400  16.3509652100  22.0052186300
C   13.6490905100  16.4553967500  21.7734443500
C   12.7930586200  15.2854491100  21.9336681500
C   12.9092154100  12.8143780900  21.6812402300
C   14.0692512800  11.9443552300  21.5251959100
C   15.2306151000  12.6398492400  22.0680064200
C   16.4882343400  12.5138382800  21.4366373900
C   16.9157289800  14.9431133200  21.7526307400
C   15.9794101800  17.0107657900  21.1067788500
C   15.5010045200  17.7544768400  20.0049028500
C   14.0660744500  17.8625891600  19.7658316200
C   13.1548585200  17.2233269000  20.6361686600
C   11.9929045800  16.5281484600  20.0938410900
C   11.7696958400  15.3301829200  20.8953577700
C   11.3392105000  14.1354572400  20.2759204700
C   11.9181388200  12.8575021600  20.6751906300
C   14.2017567600  11.1446047300  20.3681024700
C   13.1781747800  11.1880282000  19.3300591700
C   12.0542371300  12.0311863300  19.4811947600
C   11.5586356300  12.7986959200  18.3437878600
C   11.1170542000  14.0996204700  18.8349045200
C   11.3329602200  15.2608204600  18.0587019300
C   11.7778820200  16.4944589100  18.6978200000
C   12.7186594900  17.1548761400  17.7995744200
C   13.8450321600  17.8281695400  18.3245407700
C   17.1393645300  16.1406626200  20.9507080600
C   16.4382460600  16.0278098700  16.3615665600
C   17.4303705600  15.9846576300  17.3657722400
C   18.0080699800  14.7056787800  17.7647753500
C   17.5784510600  13.5096035900  17.1462662900
C   16.5544320300  13.5542393500  16.1098624700
C   14.5587925900  14.8996552700  15.4971838100
C   14.1165217100  16.1996479900  15.9828878300
C   15.2778121800  16.8982534900  16.5175716600
C   15.1442071800  17.6992445000  17.6730945100
C   16.1677104100  17.6533214100  18.7116869000
C   17.2918709500  16.8102210900  18.5605466700
C   18.2272649100  14.7414301500  19.2061684300
C   18.0105786300  13.5812676000  19.9830941300
C   17.5667775400  12.3474430400  19.3442171700
C   17.3540675500  12.3117771500  17.9479767900
C   16.1924481400  11.6156174700  17.4054137900
C   15.6978610900  12.3841354100  16.2698417100
C   14.3078009500  12.4908781500  16.0443011000
C   13.7302722500  13.7688710200  15.6499591100
C   12.8562444300  16.3283666000  16.6065665200
C   11.9996000400  15.1582121100  16.7661921800
C   12.4316140400  13.8986619200  16.2966897200
C   12.2044291900  12.6990659600  17.0916164500
C   13.3650338600  11.8284050500  16.9357628400
C   13.8443595200  11.0841145900  18.0363713600
C   15.2796713700  10.9771505700  18.2751462100
C   15.5001751200  11.0143700700  19.7163631100
C   16.6253541800  11.6880803900  20.2422704800
C   17.7847507900  16.0416419900  19.6977714600
C   17.3442352300  13.6838618100  21.2764577700
C   15.9918334000  14.7924230200  15.7323304000
