58
H2Pc farther from C60; atoms 1-58 of full system
C   10.8929051800  13.0810690500  9.8476411000
C   9.1308191900  11.4561303600  10.0432148800
C   10.0740825500  10.4183640700  9.9368042300
C   11.4381898900  10.6952426200  9.7851804000
C   11.8395912000  12.0397397200  9.7422963100
C   13.1507788200  12.6965517900  9.6222758700
N   13.0079613100  14.0667082700  9.6570809100
N   14.3061783800  11.9967055900  9.5040347400
N   17.8579252500  15.2675310100  9.0405762500
C   15.5237615200  12.5526622000  9.3607520700
C   16.7797623500  11.8203571600  9.2738694100
C   17.0712909000  10.4426292800  9.3310009200
C   18.4066030600  10.0471778400  9.2605630900
C   19.4432228100  10.9975360900  9.1365152400
C   19.1671482400  12.3636231000  9.0780235200
C   17.8215367700  12.7768527900  9.1467755400
C   17.2036325700  14.0965262000  9.1450975400
N   15.8394334500  13.8984575500  9.2812419700
C   11.6622614300  14.3338205300  9.7854511700
C   9.5262246200  12.7986752200  10.0001656500
C   17.2624281400  16.4858001300  9.0767184500
C   19.4053199300  18.0198791600  8.9246910200
C   13.4124241800  18.2717987800  9.5881368200
C   12.1721365400  19.0005172300  9.8203765100
C   11.8961945800  20.3754023500  9.9614976000
C   10.5804889300  20.7634503000  10.2152102000
C   9.5460275100  19.8092918400  10.3282467400
C   9.8056622700  18.4459594900  10.1925117300
C   11.1313313100  18.0416250000  9.9367959300
C   11.7339857400  16.7242054100  9.7891455400
N   13.0886549900  16.9248693400  9.5841714400
N   11.0741704700  15.5531720800  9.8641049300
C   18.0331977300  17.7390162300  9.0197729100
C   19.8076088900  19.3609327000  8.9393242900
C   18.8649245800  20.3994031500  9.0475089400
C   17.4955398200  20.1238353800  9.1441884900
C   17.0876227500  18.7806532100  9.1289645600
C   15.7750752600  18.1241149500  9.2496510200
N   15.9175701200  16.7549459500  9.2028355400
N   14.6272006900  18.8261957200  9.4213298600
H   13.7715048700  16.1724815500  9.4722551500
H   15.1549709500  14.6550349400  9.3447001700
H   10.3432228300  21.8206265900  10.3331173100
H   12.6929092500  21.1139121400  9.8808052900
H   16.7692294300  20.9310905300  9.2373122300
H   19.2096791600  21.4335708400  9.0609427600
H   20.8672941900  19.6075222700  8.8706696700
H   20.1397150200  17.2179624500  8.8507159900
H   19.9697396200  13.0947894500  8.9886904000
H   20.4764274700  10.6537323100  9.0917986300
H   18.6589289700  8.9884054800  9.3118438800
H   16.2734595600  9.7093741200  9.4412166400
H   12.1680243400  9.8888645200  9.7175211300
H   9.7360459200  9.3834239300  9.9875141600
H   8.0775100500  11.2077144800  10.1734029000
H   8.7942052400  13.6003616400  10.0960338100
H   9.0095409100  17.7097509400  10.2944517000
H   8.5307402400  20.1473798300  10.5340795800
