58
H2Pc in direct contact with C60; atoms 59-116 of full system
C   10.3284081300  11.8248169000  13.4126030500
C   8.6047891000  10.1695783200  13.6819465100
C   9.5658022600  9.1486440500  13.5675941800
C   10.9199026000  9.4499590000  13.3777941600
C   11.2926980900  10.8009325500  13.3001341000
C   12.5825341100  11.4811744300  13.1012408700
N   12.4067087700  12.8465176200  13.0817883400
N   13.7526726000  10.8033771300  13.0017053500
N   17.2364396400  14.1449583400  12.5158979600
C   14.9574754200  11.3840933700  12.8539695600
C   16.2353984500  10.6858524600  12.8484186900
C   16.5653012900  9.3199430500  12.9540693400
C   17.9130806200  8.9616202700  12.9245647500
C   18.9257804200  9.9371074300  12.7976306000
C   18.6125317300  11.2921499400  12.6955899200
C   17.2543317100  11.6656570400  12.7194202000
C   16.6020849200  12.9638233200  12.6328779600
N   15.2390875900  12.7332915700  12.7135149000
C   11.0651643600  13.0908872200  13.2739025200
C   8.9727105500  11.5185422900  13.6078351300
C   16.6192859300  15.3519230500  12.5100427700
C   18.7391180700  16.9206167600  12.4525462800
C   12.7398666000  17.0548574800  13.0376689800
C   11.5076755900  17.7597816700  13.3595240500
C   11.2260145200  19.1290425200  13.5346339800
C   9.9179765400  19.4984764600  13.8464807700
C   8.9004382700  18.5301823600  13.9885586600
C   9.1690133300  17.1713369100  13.8240810000
C   10.4860073000  16.7852697700  13.5045193400
C   11.0937081500  15.4806366400  13.2827221900
N   12.4300011500  15.7057068300  12.9960406700
N   10.4577682400  14.2987767000  13.3771966900
C   17.3701676400  16.6163680000  12.5115355400
C   19.1168928700  18.2681362500  12.4918035800
C   18.1543964400  19.2885272000  12.5940006300
C   16.7881049800  18.9892338500  12.6574320300
C   16.4043470700  17.6398789600  12.6115441600
C   15.1007427200  16.9604563400  12.6646775500
N   15.2644688900  15.5953429700  12.5771537700
N   13.9405863600  17.6353904800  12.8566704200
H   13.1003111000  14.9678142900  12.7711285200
H   14.5279242600  13.4663478100  12.6713562400
H   9.6719464600  20.5517005700  13.9796479300
H   12.0089339300  19.8771456900  13.4184693800
H   16.0445767700  19.7826727400  12.7284202200
H   18.4806031200  20.3283624400  12.6144592600
H   20.1722931900  18.5345405400  12.4336470900
H   19.4867241300  16.1323292400  12.3678048900
H   19.3939623400  12.0436119600  12.5918833800
H   19.9685051100  9.6211127800  12.7764366200
H   18.1934514200  7.9113238400  13.0009932500
H   15.7860066700  8.5653795500  13.0541204700
H   11.6610403100  8.6560255100  13.2873831800
H   9.2477974100  8.1076133300  13.6277668100
H   7.5581489700  9.9028062100  13.8296045600
H   8.2249556400  12.3069763200  13.6931453600
H   8.3827323000  16.4258879500  13.9371353200
H   7.8887149700  18.8541951200  14.2323213500
