176
MD Time 0.00
C          10.78554378       13.09598679       10.19229486
C           8.95847403       11.62426915       10.31907996
C           9.87017464       10.50872460       10.19351482
C          11.22136610       10.72327939       10.03377638
C          11.67363373       12.06412948       10.04753465
C          13.00326342       12.66237897        9.97789478
N          12.92783447       14.01815331       10.05930335
N          14.15070912       11.97878603        9.81621383
N          17.69589447       15.27501512        9.15981280
C          15.35646405       12.53317979        9.64649147
C          16.64579944       11.85251042        9.48759563
C          17.00323882       10.51983580        9.38486059
C          18.37320785       10.22554250        9.19267618
C          19.35451149       11.22772116        8.92616038
C          18.98702555       12.59142100        8.96962972
C          17.64722981       12.85578120        9.18497358
C          16.98085475       14.11364923        9.29765516
N          15.63458306       13.87926185        9.56650686
C          11.64028140       14.36985672       10.15869383
C           9.40661616       12.93966102       10.28776970
C          17.14243716       16.50213988        9.28712618
C          19.26282497       18.00425902        8.66137228
C          13.41928364       18.39379866       10.05131216
C          12.16518132       19.12249350       10.19798399
C          11.85209997       20.49831247       10.15447485
C          10.48036533       20.79846182       10.17103145
C           9.41638800       19.81583288       10.16164973
C           9.75465673       18.43429015       10.22034551
C          11.10142704       18.13540498       10.19978697
C          11.73558020       16.80007107       10.14250143
N          13.08533667       17.02267816        9.98547945
N          11.11892145       15.61435308       10.16354679
C          17.91555341       17.74586276        9.08439320
C          19.68802407       19.39710297        8.68356707
C          18.82542957       20.39480075        9.17220097
C          17.50932731       20.14614930        9.52256002
C          17.03529796       18.81394383        9.42795213
C          15.76364890       18.20036875        9.64746454
N          15.83463615       16.81132104        9.64190878
N          14.65109886       18.92735627        9.85980706
H          13.80407632       16.29663805       10.01943085
H          15.01576913       14.64608050        9.83716239
H          10.10487314       21.80707092        9.93852837
H          12.56719995       21.32460371       10.10994001
H          16.82631373       20.95794504        9.73739044
H          19.22809580       21.40433367        9.28565993
H          20.74836345       19.60515061        8.55602666
H          19.86919767       17.16184210        8.30998562
H          19.71616675       13.36254746        8.70458406
H          20.39270423       10.93913395        8.79239958
H          18.72832714        9.17653998        9.21063545
H          16.34115422        9.67875120        9.50448052
H          11.95131053        9.92798504       10.13146702
H           9.46899485        9.50099538       10.21800012
H           7.89774668       11.43542541       10.48404215
H           8.74155494       13.79446412       10.39064962
H           9.01668472       17.63485615       10.20003307
H           8.42581026       20.19079819       10.05279410
C          10.25268705       11.68834137       13.26578820
C           8.60302506        9.93045872       13.45679404
C           9.60449520        8.98750232       13.64411925
C          10.98984893        9.36936695       13.52058658
C          11.27859775       10.69151041       13.28543861
C          12.55860090       11.47102993       13.25657147
N          12.29360891       12.79150476       13.27629244
N          13.77695830       10.92682001       13.16998884
N          17.23284016       14.21563840       12.29230244
C          14.95468043       11.51653289       13.02124785
C          16.23843545       10.82298307       12.96697463
C          16.60452284        9.44489849       13.18973506
C          17.93948524        9.15161109       13.04008536
C          18.90005660       10.17514515       12.63367834
C          18.61007551       11.53708876       12.54981476
C          17.23698187       11.81762196       12.63020347
C          16.55557036       13.07039537       12.48958845
N          15.22988382       12.87705877       12.74454899
C          10.90880278       12.97263279       13.23056921
C           8.88581172       11.29400537       13.22521134
C          16.60228978       15.38851519       12.36909835
C          18.68064463       17.07533732       11.94055975
C          12.72182013       17.01640813       13.09016314
C          11.47009965       17.74474873       13.27191577
C          11.24002845       19.10388177       13.54135003
C           9.87489212       19.49653516       13.55910995
C           8.84694399       18.57377436       13.37970292
C           9.08185759       17.18365733       13.23827991
C          10.39873813       16.74102621       13.11520585
C          11.03676475       15.40926366       13.09021421
N          12.41740435       15.66495540       12.94832413
N          10.39020189       14.22574050       13.11128382
C          17.35356242       16.70563059       12.27122087
C          19.05345897       18.40390849       12.01853798
C          18.15447111       19.35569848       12.52101852
C          16.87302010       18.97854244       12.92238714
C          16.42331317       17.67031196       12.67341458
C          15.09652424       16.95659779       12.79151702
N          15.24446883       15.61370363       12.62212695
N          13.92406190       17.57606739       13.04635968
H          13.11716862       14.93710893       12.80031724
H          14.55638163       13.64476638       12.63701676
H           9.62748848       20.54501594       13.72785443
H          12.10258287       19.75423293       13.56230507
H          16.16940670       19.71376782       13.32722245
H          18.52729192       20.36915858       12.66901213
H          20.06905218       18.66074538       11.68721992
H          19.33856665       16.27073330       11.62137811
H          19.36458089       12.31821039       12.47072370
H          19.91339554        9.77820388       12.44713739
H          18.35343033        8.16356384       13.11347821
H          15.88657180        8.71452195       13.55471967
H          11.80122934        8.64177435       13.62241226
H           9.37218653        7.94846843       13.86485328
H           7.55791660        9.59474914       13.53302133
H           8.10394673       12.03469453       13.16472070
H           8.23771034       16.50615592       13.06413658
H           7.80649063       18.88855066       13.33779352
C          13.26151927       14.09876512       22.08147601
C          14.68104916       13.97788615       22.40609706
C          15.49145870       15.08046003       22.21394034
C          14.90074482       16.33248895       21.79005625
C          13.54813738       16.42644139       21.54864192
C          12.69752187       15.28405755       21.69790668
C          12.84521151       12.86286147       21.45369581
C          13.94116559       11.92137818       21.43035412
C          15.11773194       12.61870338       21.97936069
C          16.33953272       12.49436180       21.42398431
C          16.82251684       14.91882443       21.66151159
C          15.86637595       16.95763873       20.91974396
C          15.48337919       17.72356949       19.83877695
C          14.01276962       17.84173717       19.56690301
C          13.09536628       17.16098654       20.36683352
C          11.97123647       16.49002675       19.76290390
C          11.71747403       15.35650471       20.62356930
C          11.25277613       14.17106366       20.05396549
C          11.81972968       12.89459589       20.49576786
C          14.10279461       11.08281919       20.29556943
C          13.03286032       11.15810715       19.23633795
C          11.95253859       12.07125286       19.32599261
C          11.45379903       12.79148147       18.15385049
C          11.09355049       14.09990998       18.63957924
C          11.21939590       15.20427061       17.77922675
C          11.80689721       16.45364775       18.40906510
C          12.72312291       17.17447578       17.51449603
C          13.86059183       17.80119495       18.12170270
C          17.06106963       16.09747679       20.80562655
C          16.40706578       15.93873624       16.16846106
C          17.36775529       15.89740755       17.22473855
C          17.90668930       14.62813622       17.67962048
C          17.48447397       13.38246663       17.10299690
C          16.50109350       13.38643048       15.98294580
C          14.52139023       14.72026441       15.31874073
C          14.11558866       16.09421474       15.72462148
C          15.24506213       16.83283699       16.29888198
C          15.14969297       17.66162200       17.48014460
C          16.16742113       17.60798183       18.55828627
C          17.23238687       16.70583024       18.41762671
C          18.12161272       14.67994269       19.16054697
C          17.90866375       13.51938152       19.92517702
C          17.46697011       12.27046822       19.31813982
C          17.23160901       12.23239306       17.91356875
C          16.11561753       11.52504115       17.40349358
C          15.62700688       12.21910498       16.19161265
C          14.27585531       12.34548681       15.89396172
C          13.73199308       13.61678142       15.47989622
C          12.86698682       16.25958130       16.36586846
C          11.99377412       15.08207283       16.50705093
C          12.40306336       13.84395868       16.04024411
C          12.17121280       12.67526394       16.95112036
C          13.29929496       11.73345873       16.86250856
C          13.71558543       10.97577771       17.97115351
C          15.17747550       10.86792507       18.24620852
C          15.39956399       10.91328737       19.69212487
C          16.46179438       11.68057319       20.22324568
C          17.70910075       15.97989000       19.53436749
C          17.22990096       13.69570135       21.24781561
C          15.98786459       14.61803957       15.58971724
176
MD Time 20.67
C          10.78442942       13.09554470       10.19189619
C           8.95812623       11.62472778       10.31644576
C           9.87499897       10.51026953       10.19187941
C          11.22255396       10.72404282       10.03421577
C          11.67518457       12.06109458       10.05034299
C          13.00448463       12.66206100        9.97970652
N          12.92833097       14.02219743       10.05916565
N          14.15258086       11.97999961        9.81760498
N          17.69550214       15.27446014        9.15849987
C          15.35712754       12.53492776        9.64441311
C          16.64426122       11.85186331        9.48329383
C          16.99991927       10.52055542        9.38105411
C          18.36836350       10.22585400        9.19508821
C          19.35759836       11.22846190        8.92332354
C          18.98655172       12.59472416        8.96572212
C          17.64693365       12.85325817        9.18175237
C          16.97933341       14.11344947        9.29594330
N          15.63708398       13.87916040        9.56369187
C          11.64142060       14.36637090       10.15371045
C           9.40582435       12.93873657       10.28574996
C          17.14011842       16.50231155        9.28676138
C          19.26254523       18.00295026        8.65843441
C          13.42390216       18.39515246       10.05269179
C          12.16409141       19.12440276       10.20148830
C          11.84963902       20.49721415       10.15705228
C          10.47991038       20.79531926       10.17294338
C           9.41887877       19.82203067       10.16091256
C           9.75306355       18.43326128       10.22218986
C          11.09868158       18.13682498       10.19853415
C          11.73525683       16.80503160       10.14432780
N          13.08715674       17.02026199        9.98439520
N          11.11858675       15.61467358       10.16495050
C          17.91589793       17.74624847        9.08142143
C          19.68887072       19.39379189        8.68633244
C          18.82683657       20.40075262        9.17096236
C          17.51026415       20.14867347        9.52187907
C          17.03614878       18.81570566        9.42869824
C          15.76310115       18.20002082        9.64912857
N          15.83379367       16.81153171        9.63931850
N          14.65225699       18.92652457        9.86243203
H          13.80573633       16.29305364       10.02314219
H          15.00157564       14.64860550        9.85210313
H          10.11047109       21.80345872        9.93916114
H          12.55748447       21.32126896       10.10992510
H          16.82319308       20.95968073        9.74146149
H          19.23921401       21.40312843        9.27870780
H          20.74803643       19.60661868        8.54660961
H          19.87494647       17.18095494        8.30350830
H          19.72734858       13.36402853        8.68190836
H          20.38615645       10.94498623        8.79830610
H          18.71831317        9.17145648        9.21453083
H          16.33976462        9.67607231        9.50580880
H          11.94607393        9.93510994       10.12810560
H           9.46266529        9.50165209       10.22363418
H           7.89163041       11.42931403       10.47536978
H           8.76115016       13.77972740       10.39180956
H           9.01921038       17.64273823       10.19509475
H           8.42591437       20.18834249       10.05766800
C          10.25060014       11.68727225       13.26177145
C           8.60106367        9.92987520       13.45674964
C           9.60403324        8.98675181       13.64046468
C          10.98683987        9.36721071       13.52075387
C          11.28066804       10.68866576       13.28664622
C          12.55560002       11.46990645       13.25713259
N          12.29018526       12.79182606       13.27767547
N          13.77580425       10.92740511       13.16795641
N          17.23465289       14.21541384       12.29372623
C          14.95600820       11.51712822       13.02435821
C          16.23551105       10.82032349       12.96804069
C          16.60403693        9.44410482       13.18931395
C          17.93879411        9.15357538       13.04068047
C          18.89905057       10.17537732       12.63288884
C          18.60861232       11.53458848       12.55096194
C          17.23842226       11.82118420       12.62794856
C          16.55469587       13.07164228       12.48352270
N          15.23261325       12.87894187       12.74309173
C          10.91102574       12.97228521       13.22722505
C           8.88958300       11.29312272       13.22515210
C          16.60459685       15.38731915       12.36750012
C          18.67902109       17.07535629       11.94275851
C          12.72322548       17.01528885       13.08896736
C          11.47111668       17.74321571       13.27174180
C          11.24149146       19.10922455       13.53892040
C           9.87468194       19.49707644       13.56470738
C           8.84751381       18.57551348       13.37873710
C           9.08287273       17.18212027       13.23677187
C          10.39769037       16.74248041       13.11630703
C          11.03891785       15.40956909       13.08900052
N          12.41618349       15.66439185       12.94776119
N          10.38710395       14.22675454       13.10776368
C          17.35890953       16.70422135       12.27162882
C          19.05237032       18.40360082       12.01907756
C          18.15143250       19.35736395       12.52197760
C          16.87292617       18.97821285       12.92398071
C          16.42387941       17.67028931       12.67477619
C          15.09672199       16.96177780       12.79678599
N          15.24285035       15.61305244       12.62116166
N          13.92907463       17.57694300       13.04467981
H          13.10546835       14.94040798       12.80084235
H          14.56414817       13.65721887       12.64676118
H           9.62193989       20.54493600       13.72260214
H          12.09894181       19.74772633       13.57767933
H          16.16806403       19.71163945       13.33075175
H          18.52084092       20.37021553       12.67741172
H          20.07245863       18.65032934       11.68529519
H          19.34596183       16.26108859       11.62166569
H          19.36566805       12.31678092       12.46964576
H          19.90942149        9.78875753       12.46429148
H          18.35919017        8.15547732       13.10712519
H          15.88694893        8.72285117       13.56417564
H          11.79012166        8.63631963       13.61811272
H           9.36277544        7.93956529       13.87292448
H           7.54857674        9.59745166       13.51498453
H           8.11564480       12.04370666       13.16460172
H           8.24146900       16.50487477       13.05216799
H           7.80855967       18.88597919       13.33838577
C          13.26643574       14.09734983       22.07910582
C          14.67761442       13.97707861       22.40311166
C          15.48925183       15.08289728       22.21666239
C          14.90185884       16.32774289       21.79468738
C          13.54831433       16.42273844       21.55577583
C          12.70056306       15.28282521       21.69627378
C          12.84739960       12.85987865       21.45325512
C          13.94024837       11.92269015       21.43167168
C          15.11496581       12.61803529       21.98054317
C          16.33710892       12.48965785       21.42570905
C          16.82364276       14.91796101       21.66230072
C          15.86944851       16.96182401       20.92400965
C          15.48331741       17.72608930       19.83811060
C          14.01236873       17.84408916       19.57032993
C          13.09230349       17.16334257       20.36674558
C          11.97196729       16.48855886       19.76277239
C          11.71960251       15.35426932       20.62524853
C          11.25302219       14.17022119       20.05289006
C          11.81847841       12.89956546       20.49352470
C          14.10547459       11.08077813       20.29323131
C          13.03358271       11.15535928       19.23712139
C          11.95549189       12.07214729       19.32140882
C          11.45643577       12.79087594       18.15301003
C          11.09559162       14.09765678       18.63885227
C          11.22282375       15.20762839       17.77607974
C          11.80697762       16.44853425       18.41005941
C          12.72335461       17.17908923       17.50856476
C          13.85594320       17.80061027       18.12182964
C          17.05861198       16.09914974       20.80596850
C          16.40884170       15.93820788       16.16918629
C          17.36401170       15.90468747       17.22386348
C          17.90932699       14.62652245       17.68417100
C          17.48695874       13.38360287       17.10019524
C          16.50234868       13.38948559       15.98098010
C          14.52039865       14.72041106       15.32189923
C          14.11909507       16.09163261       15.72423610
C          15.25031870       16.83530545       16.29938379
C          15.15060667       17.66349050       17.47838222
C          16.16605572       17.60635699       18.55864002
C          17.23285879       16.70514912       18.42048591
C          18.12110954       14.67634127       19.16044169
C          17.90693251       13.52121121       19.92428223
C          17.46932199       12.27165270       19.31685763
C          17.23358187       12.23191973       17.91573828
C          16.11107314       11.52519235       17.40537604
C          15.62757546       12.22233820       16.19780070
C          14.27349241       12.34706724       15.89318974
C          13.73089680       13.61693703       15.48214306
C          12.86420347       16.26061079       16.36737248
C          11.99391946       15.08283890       16.51096802
C          12.40414777       13.84263628       16.04450423
C          12.17292763       12.67619041       16.95048845
C          13.29630914       11.73551933       16.86504744
C          13.71766146       10.97528910       17.96795801
C          15.17850934       10.86824891       18.24947447
C          15.39910787       10.91349361       19.69190203
C          16.45754738       11.67805401       20.22355918
C          17.70615888       15.97613670       19.53451530
C          17.23238986       13.69299706       21.24815972
C          15.98530150       14.62184424       15.59116606
176
MD Time 41.34
C          10.78328363       13.09569166       10.19141829
C           8.95775889       11.62495031       10.31376963
C           9.87945362       10.51196725       10.19022052
C          11.22392108       10.72496561       10.03479083
C          11.67688482       12.05776865       10.05314497
C          13.00585166       12.66157344        9.98149602
N          12.92910860       14.02639090       10.05902169
N          14.15449025       11.98108609        9.81899710
N          17.69489466       15.27384223        9.15719344
C          15.35773709       12.53651561        9.64236119
C          16.64273708       11.85132507        9.47876295
C          16.99684515       10.52110487        9.37732284
C          18.36370086       10.22613856        9.19739039
C          19.36039276       11.22923361        8.92068300
C          18.98628976       12.59779391        8.96160983
C          17.64634523       12.85073666        9.17873916
C          16.97809487       14.11357317        9.29417298
N          15.63962640       13.87940486        9.56093396
C          11.64210457       14.36295799       10.14871345
C           9.40515801       12.93766117       10.28373773
C          17.13786927       16.50245440        9.28632360
C          19.26198518       18.00195911        8.65558967
C          13.42863883       18.39650307       10.05396066
C          12.16297115       19.12622941       10.20489279
C          11.84702695       20.49600807       10.15969756
C          10.47914676       20.79217880       10.17465877
C           9.42184961       19.82806045       10.16023411
C           9.75134821       18.43261421       10.22396716
C          11.09625951       18.13808852       10.19734425
C          11.73484211       16.80987486       10.14605251
N          13.08907015       17.01796521        9.98343082
N          11.11814466       15.61502509       10.16639723
C          17.91649278       17.74671960        9.07839582
C          19.68966497       19.39004497        8.68925617
C          18.82841975       20.40669964        9.16967551
C          17.51098094       20.15101222        9.52107303
C          17.03729148       18.81755911        9.42936797
C          15.76232470       18.19962822        9.65092545
N          15.83295686       16.81172363        9.63665225
N          14.65321209       18.92571821        9.86513563
H          13.80760047       16.28951119       10.02611405
H          14.98743976       14.64956715        9.86581730
H          10.11712850       21.80035061        9.94091159
H          12.54882566       21.31746885       10.10979795
H          16.81966564       20.96171291        9.74631983
H          19.25021032       21.40251868        9.27163245
H          20.74795107       19.60846843        8.53619014
H          19.88157376       17.19984456        8.29712344
H          19.73730128       13.36541619        8.66016305
H          20.38112730       10.95031655        8.80367823
H          18.70745551        9.16747007        9.21826971
H          16.33678822        9.67319737        9.50760212
H          11.94180752        9.94075497       10.12376350
H           9.45640358        9.50205535       10.22953317
H           7.88565986       11.42287482       10.46636816
H           8.77925500       13.76681845       10.39325722
H           9.02093052       17.64989635       10.19023400
H           8.42333858       20.18618955       10.06262399
C          10.24828090       11.68606017       13.25766518
C           8.59890572        9.92935016       13.45667874
C           9.60388535        8.98592248       13.63679048
C          10.98362830        9.36484626       13.52093125
C          11.28280459       10.68612782       13.28795513
C          12.55260261       11.46858558       13.25765830
N          12.28677591       12.79233614       13.27896748
N          13.77468816       10.92785014       13.16599342
N          17.23639247       14.21518551       12.29510965
C          14.95727499       11.51767699       13.02737376
C          16.23274087       10.81765049       12.96905812
C          16.60340346        9.44367325       13.18894896
C          17.93843709        9.15575528       13.04101014
C          18.89806850       10.17534075       12.63225592
C          18.60704742       11.53195009       12.55210661
C          17.23968004       11.82456517       12.62580769
C          16.55412292       13.07291450       12.47757461
N          15.23515793       12.88082812       12.74162487
C          10.91346150       12.97228569       13.22381978
C           8.89359741       11.29223062       13.22526572
C          16.60708423       15.38641489       12.36584233
C          18.67727881       17.07499160       11.94497034
C          12.72467957       17.01421251       13.08778475
C          11.47203197       17.74144007       13.27153816
C          11.24268733       19.11424878       13.53633899
C           9.87469474       19.49774843       13.57034209
C           8.84803824       18.57699320       13.37777341
C           9.08382237       17.18064666       13.23511040
C          10.39692244       16.74406384       13.11768813
C          11.04093127       15.40977662       13.08764834
N          12.41484280       15.66384657       12.94728259
N          10.38393175       14.22779957       13.10432789
C          17.36413901       16.70261792       12.27214275
C          19.05144723       18.40331355       12.01960550
C          18.14852983       19.35904016       12.52300625
C          16.87256924       18.97796055       12.92550611
C          16.42433415       17.67027133       12.67620086
C          15.09699686       16.96712391       12.80212790
N          15.24136106       15.61231492       12.62014168
N          13.93411105       17.57795305       13.04299888
H          13.09450623       14.94306298       12.80165621
H          14.57216404       13.66876376       12.65715575
H           9.61635061       20.54531135       13.71728830
H          12.09631366       19.74314604       13.59363687
H          16.16686472       19.70957338       13.33421065
H          18.51395106       20.37184277       12.68573942
H          20.07506396       18.64059547       11.68387195
H          19.35355103       16.25233224       11.62188839
H          19.36654888       12.31530134       12.46767221
H          19.90584121        9.80001038       12.48170897
H          18.36445112        8.14645389       13.10134711
H          15.88654384        8.73075463       13.57338636
H          11.77908208        8.63057504       13.61386372
H           9.35332135        7.93113702       13.88076840
H           7.53994936        9.60061173       13.49688335
H           8.12644965       12.05332404       13.16423767
H           8.24544650       16.50344700       13.04081826
H           7.81007642       18.88424009       13.33928725
C          13.27140829       14.09559175       22.07686955
C          14.67407129       13.97611724       22.40013875
C          15.48706701       15.08525885       22.21956175
C          14.90321495       16.32303931       21.79936389
C          13.54839646       16.41926071       21.56274538
C          12.70345288       15.28181617       21.69457550
C          12.84934782       12.85690902       21.45293134
C          13.93946547       11.92394208       21.43281746
C          15.11173460       12.61756576       21.98194980
C          16.33517207       12.48502033       21.42711841
C          16.82469281       14.91754713       21.66302572
C          15.87277788       16.96600650       20.92828905
C          15.48297371       17.72867262       19.83733922
C          14.01214883       17.84642416       19.57364347
C          13.08940031       17.16586793       20.36672620
C          11.97272591       16.48715316       19.76306153
C          11.72156738       15.35185840       20.62690712
C          11.25334648       14.16937609       20.05197529
C          11.81731471       12.90450670       20.49129785
C          14.10772266       11.07890106       20.29101803
C          13.03447927       11.15259806       19.23798402
C          11.95853523       12.07274731       19.31685081
C          11.45926200       12.79019469       18.15221757
C          11.09737165       14.09554527       18.63777344
C          11.22667575       15.21123284       17.77302807
C          11.80678971       16.44340299       18.41069481
C          12.72354888       17.18339455       17.50280512
C          13.85115489       17.79998198       18.12174799
C          17.05611263       16.10085877       20.80625372
C          16.41069899       15.93749637       16.17008093
C          17.36025658       15.91177502       17.22290209
C          17.91194951       14.62455859       17.68868371
C          17.48948535       13.38509113       17.09726343
C          16.50376095       13.39253018       15.97928206
C          14.51993630       14.72094137       15.32507284
C          14.12239810       16.08907149       15.72410815
C          15.25571646       16.83763729       16.29994399
C          15.15152460       17.66523816       17.47655895
C          16.16458599       17.60470724       18.55883886
C          17.23324448       16.70475685       18.42315210
C          18.12068549       14.67252556       19.15985414
C          17.90513555       13.52311122       19.92360714
C          17.47148564       12.27289453       19.31563821
C          17.23572243       12.23143081       17.91819671
C          16.10618430       11.52516865       17.40707927
C          15.62826645       12.22569799       16.20395320
C          14.27099324       12.34845109       15.89276365
C          13.72957794       13.61716548       15.48434735
C          12.86153839       16.26165881       16.36873728
C          11.99392297       15.08377813       16.51498701
C          12.40526487       13.84092674       16.04904140
C          12.17460259       12.67705756       16.94974726
C          13.29334583       11.73773019       16.86731844
C          13.71987815       10.97491518       17.96473933
C          15.17962863       10.86863961       18.25261198
C          15.39860830       10.91380908       19.69163096
C          16.45359544       11.67541688       20.22374781
C          17.70310959       15.97244183       19.53535245
C          17.23497673       13.68969010       21.24821701
C          15.98248567       14.62589838       15.59254556
176
MD Time 62.01
C          10.78214757       13.09638575       10.19085291
C           8.95735180       11.62491538       10.31105048
C           9.88347083       10.51378409       10.18854793
C          11.22545318       10.72606147       10.03549532
C          11.67872593       12.05422345       10.05593927
C          13.00736996       12.66092785        9.98326532
N          12.93017219       14.03069239       10.05886760
N          14.15642843       11.98204931        9.82039106
N          17.69406976       15.27317194        9.15589417
C          15.35830232       12.53793204        9.64033282
C          16.64122518       11.85090500        9.47400641
C          16.99399668       10.52145713        9.37367558
C          18.35926382       10.22639828        9.19956820
C          19.36278453       11.23005063        8.91826219
C          18.98629396       12.60063051        8.95726473
C          17.64546144       12.84825105        9.17592752
C          16.97715882       14.11401049        9.29233889
N          15.64212056       13.88005567        9.55827028
C          11.64231154       14.35967618       10.14371883
C           9.40471779       12.93632354       10.28171880
C          17.13571100       16.50256461        9.28580163
C          19.26112700       18.00134653        8.65285968
C          13.43343445       18.39783235       10.05512587
C          12.16184303       19.12794876       10.20818989
C          11.84426361       20.49466796       10.16241234
C          10.47808521       20.78907547       10.17617785
C           9.42524731       19.83385431       10.15962279
C           9.74955054       18.43242253       10.22566916
C          11.09417915       18.13919984       10.19622725
C          11.73434147       16.81453379       10.14766792
N          13.09106710       17.01581495        9.98259188
N          11.11760329       15.61541538       10.16788188
C          17.91731634       17.74726751        9.07532702
C          19.69039640       19.38591503        8.69233170
C          18.83018146       20.41257610        9.16833067
C          17.51147662       20.15319543        9.52015055
C          17.03872136       18.81948640        9.42995790
C          15.76135716       18.19919767        9.65284546
N          15.83211838       16.81189969        9.63391631
N          14.65397378       18.92495067        9.86791861
H          13.80956237       16.28607407       10.02832586
H          14.97426578       14.64813403        9.87785146
H          10.12473223       21.79793065        9.94374906
H          12.54156881       21.31357952       10.10955677
H          16.81593163       20.96384161        9.75187064
H          19.26106021       21.40275795        9.26449467
H          20.74796000       19.61059531        8.52485766
H          19.88942168       17.21774270        8.29059177
H          19.74542836       13.36629785        8.63963673
H          20.37845606       10.95483376        8.80839013
H          18.69580434        9.16475787        9.22185564
H          16.33237832        9.67036878        9.50979391
H          11.93898446        9.94438634       10.11851912
H           9.45050817        9.50256836       10.23561642
H           7.88030044       11.41624001       10.45701668
H           8.79453937       13.75733511       10.39517783
H           9.02135940       17.65582802       10.18546490
H           8.41829844       20.18438393       10.06764717
C          10.24580382       11.68470172       13.25348098
C           8.59653902        9.92888399       13.45656468
C           9.60398750        8.98495056       13.63312450
C          10.98022107        9.36229357       13.52111099
C          11.28496944       10.68390531       13.28935851
C          12.54964211       11.46706985       13.25814776
N          12.28339929       12.79302464       13.28016677
N          13.77360888       10.92816617       13.16410529
N          17.23806592       14.21495876       12.29644126
C          14.95845702       11.51818391       13.03028696
C          16.23015889       10.81501084       12.97001323
C          16.60262336        9.44361428       13.18864419
C          17.93844847        9.15806188       13.04107267
C          18.89706394       10.17504666       12.63180228
C          18.60539710       11.52922033       12.55323692
C          17.24072271       11.82772287       12.62378506
C          16.55386627       13.07419182       12.47175804
N          15.23749525       12.88272623       12.74015251
C          10.91606019       12.97263370       13.22035516
C           8.89780355       11.29134385       13.22554483
C          16.60972402       15.38582031       12.36413751
C          18.67550415       17.07419791       11.94716362
C          12.72619595       17.01319727       13.08661760
C          11.47284545       17.73947520       13.27130961
C          11.24356968       19.11886964       13.53361714
C           9.87493019       19.49855142       13.57599364
C           8.84853194       18.57818269       13.37681559
C           9.08469254       17.17926855       13.23329503
C          10.39646793       16.74575422       13.11934049
C          11.04276743       15.40988896       13.08615960
N          12.41335007       15.66336800       12.94689707
N          10.38070491       14.22887041       13.10097628
C          17.36916962       16.70082926       12.27278234
C          19.05069086       18.40306041       12.02012464
C          18.14579113       19.36071502       12.52409639
C          16.87193699       18.97777901       12.92696788
C          16.42470096       17.67024399       12.67768521
C          15.09740587       16.97255944       12.80751037
N          15.24002179       15.61151434       12.61907062
N          13.93909861       17.57910704       13.04133223
H          13.08501298       14.94435335       12.80259639
H          14.58049792       13.67920492       12.66817339
H           9.61076549       20.54619091       13.71201582
H          12.09528026       19.74097727       13.61013844
H          16.16580927       19.70757908       13.33760057
H          18.50669851       20.37405122       12.69393750
H          20.07672195       18.63164271       11.68301502
H          19.36076036       16.24515075       11.62231083
H          19.36709487       12.31361439       12.46485416
H          19.90328802        9.81162501       12.49920762
H          18.36881651        8.13740605       13.09614341
H          15.88526969        8.73801118       13.58237431
H          11.76838707        8.62436413       13.60972726
H           9.34411537        7.92400711       13.88810667
H           7.53239583        9.60426520       13.47883632
H           8.13640445       12.06330266       13.16363638
H           8.24957541       16.50185988       13.03012614
H           7.81089404       18.88341216       13.34046953
C          13.27638658       14.09349507       22.07475779
C          14.67046972       13.97502065       22.39719532
C          15.48493807       15.08748609       22.22263779
C          14.90480026       16.31843753       21.80405977
C          13.54838433       16.41604920       21.56950856
C          12.70618810       15.28100163       21.69282944
C          12.85101509       12.85398524       21.45270690
C          13.93882884       11.92508849       21.43376276
C          15.10806876       12.61728824       21.98357172
C          16.33372155       12.48046297       21.42821126
C          16.82565597       14.91756048       21.66368584
C          15.87632776       16.97018733       20.93256732
C          15.48235633       17.73129820       19.83649994
C          14.01208975       17.84873587       19.57681763
C          13.08668520       17.16854498       20.36681509
C          11.97350437       16.48579953       19.76377132
C          11.72336526       15.34929073       20.62852495
C          11.25374630       14.16854639       20.05121567
C          11.81627937       12.90935512       20.48909442
C          14.10950875       11.07720406       20.28896662
C          13.03555620       11.14982908       19.23889900
C          11.96166402       12.07305972       19.31236605
C          11.46226715       12.78944781       18.15146616
C          11.09888901       14.09361105       18.63632531
C          11.23092137       15.21502509       17.77012539
C          11.80635553       16.43830260       18.41095661
C          12.72366657       17.18736790       17.49726259
C          13.84628505       17.79932655       18.12145586
C          17.05358958       16.10258101       20.80648721
C          16.41261826       15.93663137       16.17113286
C          17.35655393       15.91859580       17.22189835
C          17.91453148       14.62228702       17.69310170
C          17.49205566       13.38691128       17.09423672
C          16.50531870       13.39555781       15.97786314
C          14.52000107       14.72185401       15.32825641
C          14.12545695       16.08656801       15.72426416
C          15.26121780       16.83981760       16.30054443
C          15.15242627       17.66686808       17.47469996
C          16.16301043       17.60304358       18.55889137
C          17.23353017       16.70466162       18.42561500
C          18.12033878       14.66854283       19.15879147
C          17.90327360       13.52503501       19.92316708
C          17.47344118       12.27417717       19.31450831
C          17.23800658       12.23093441       17.92089401
C          16.10101442       11.52499882       17.40861863
C          15.62903451       12.22919233       16.21003700
C          14.26839504       12.34962638       15.89270009
C          13.72804261       13.61747261       15.48650517
C          12.85904852       16.26271833       16.36992166
C          11.99380284       15.08487446       16.51907448
C          12.40640669       13.83886506       16.05384244
C          12.17621931       12.67786320       16.94891115
C          13.29044253       11.74007831       16.86929609
C          13.72221659       10.97465080       17.96153808
C          15.18081178       10.86909211       18.25558122
C          15.39806310       10.91421856       19.69131704
C          16.44998347       11.67269067       20.22381655
C          17.69995834       15.96881320       19.53687373
C          17.23763152       13.68581773       21.24800775
C          15.97944424       14.63016127       15.59385772
176
MD Time 82.68
C          10.78106331       13.09758010       10.19019203
C           8.95688786       11.62460401       10.30828584
C           9.88699057       10.51568734       10.18687108
C          11.22714200       10.72732934       10.03632384
C          11.68069991       12.05053580       10.05872542
C          13.00904274       12.66013860        9.98501731
N          12.93152215       14.03506169       10.05869989
N          14.15838779       11.98289192        9.82178774
N          17.69302756       15.27246197        9.15460188
C          15.35883505       12.53917100        9.63832408
C          16.63972250       11.85060997        9.46902756
C          16.99134870       10.52158473        9.37012092
C          18.35508767       10.22663936        9.20160894
C          19.36468885       11.23092259        8.91607868
C          18.98660272       12.60323004        8.95266303
C          17.64428593       12.84583414        9.17330843
C          16.97653980       14.11474787        9.29043665
N          15.64449203       13.88114973        9.55573117
C          11.64202791       14.35657950       10.13874107
C           9.40458578       12.93463309       10.27967985
C          17.13366363       16.50264005        9.28518432
C          19.25996240       18.00115790        8.65026076
C          13.43822954       18.39912326       10.05619496
C          12.16072837       19.12953689       10.21137301
C          11.84135271       20.49317094       10.16519822
C          10.47674476       20.78604742       10.17750247
C           9.42898991       19.83935528       10.15908418
C           9.74770742       18.43274288       10.22728854
C          11.09245207       18.14016498       10.19519248
C          11.73376267       16.81894526       10.14916706
N          13.09313835       17.01383543        9.98188340
N          11.11696923       15.61585273       10.16939938
C          17.91834367       17.74788301        9.07222588
C          19.69105989       19.38146069        8.69555148
C          18.83212167       20.41832264        9.16692004
C          17.51175264       20.15525670        9.51912049
C          17.04042987       18.82146749        9.43046559
C          15.76023836       18.19873726        9.65487841
N          15.83127093       16.81206384        9.63111633
N          14.65455435       18.92423410        9.87078195
H          13.81151359       16.28280633       10.02975995
H          14.96274685       14.64375397        9.88784425
H          10.13315438       21.79637243        9.94763780
H          12.53598805       21.30991896       10.10920365
H          16.81220971       20.96584447        9.75800653
H          19.27172735       21.40403153        9.25734371
H          20.74787095       19.61287534        8.51271481
H          19.89874534       17.23401967        8.28371831
H          19.75125849       13.36636749        8.62057749
H          20.37874399       10.95831675        8.81235695
H          18.68345278        9.16339283        9.22529362
H          16.32674210        9.66787002        9.51230542
H          11.93794280        9.94562230       10.11243807
H           9.44526145        9.50352469       10.24179853
H           7.87595527       11.40953643       10.44730810
H           8.80589660       13.75262003       10.39773819
H           9.02012429       17.66016121       10.18079675
H           8.41127428       20.18288337       10.07274435
C          10.24324872       11.68319867       13.24922995
C           8.59396054        9.92847756       13.45639064
C           9.60427261        8.98378612       13.62949124
C          10.97663069        9.35957387       13.52128530
C          11.28712436       10.68199964       13.29084999
C          12.54674970       11.46536529       13.25860065
N          12.28007522       12.79387997       13.28127188
N          13.77256445       10.92836287       13.16229705
N          17.23968173       14.21474053       12.29771012
C          14.95953296       11.51865568       13.03309086
C          16.22779284       10.81244933       12.97089367
C          16.60169795        9.44392975       13.18840482
C          17.93885257        9.16041182       13.04086815
C          18.89599636       10.17450713       12.63154757
C          18.60367514       11.52644351       12.55434087
C          17.24152397       11.83061963       12.62188287
C          16.55393514       13.07545461       12.46608553
N          15.23961003       12.88463964       12.73867920
C          10.91876999       12.97332455       13.21683216
C           8.90214019       11.29048025       13.22598129
C          16.61248871       15.38554902       12.36239792
C          18.67377680       17.07294655       11.94931156
C          12.72778801       17.01226127       13.08546804
C          11.47355939       17.73737329       13.27106093
C          11.24411497       19.12302426       13.53076642
C           9.87538310       19.49948590       13.58164253
C           8.84900499       18.57905913       13.37586750
C           9.08547177       17.17801557       13.23132583
C          10.39635576       16.74752916       13.12125472
C          11.04439043       15.40991117       13.08453687
N          12.41168439       15.66299393       12.94661090
N          10.37744183       14.22996312       13.09770776
C          17.37392299       16.69886478       12.27356693
C          19.05009459       18.40285137       12.02064044
C          18.14324082       19.36237834       12.52524146
C          16.87102019       18.97765980       12.92836927
C          16.42500411       17.67019513       12.67922678
C          15.09800408       16.97800998       12.81290258
N          15.23885253       15.61067381       12.61795232
N          13.94396582       17.58041414       13.03969459
H          13.07757394       14.94369824       12.80352792
H          14.58915492       13.68842469       12.67977213
H           9.60524101       20.54757608       13.70688095
H          12.09616512       19.74148275       13.62714492
H          16.16488871       19.70567214       13.34092597
H          18.49915249       20.37681631       12.70194445
H          20.07735851       18.62357059       11.68276210
H          19.36711887       16.24008358       11.62314477
H          19.36719113       12.31157606       12.46124727
H          19.90234411        9.82328322       12.51663580
H          18.37193639        8.12916777       13.09151854
H          15.88310343        8.74446794       13.59113679
H          11.75827914        8.61753773       13.60575836
H           9.33541989        7.91884003       13.89468876
H           7.52619168        9.60842089       13.46096566
H           8.14561786       12.07334145       13.16281350
H           8.25378540       16.50009678       13.02012122
H           7.81094341       18.88353769       13.34190579
C          13.28131551       14.09107100       22.07275879
C          14.66686108       13.97380681       22.39429866
C          15.48289912       15.08952131       22.22589034
C          14.90659758       16.31399710       21.80875028
C          13.54828269       16.41314149       21.57602935
C          12.70876862       15.28034772       21.69105465
C          12.85236323       12.85113748       21.45256491
C          13.93834697       11.92608748       21.43448252
C          15.10401032       12.61719279       21.98539536
C          16.33274532       12.47599808       21.42899246
C          16.82652441       14.91796879       21.66427965
C          15.88006059       16.97437052       20.93682962
C          15.48147608       17.73394486       19.83562959
C          14.01217011       17.85101864       19.57982739
C          13.08418298       17.17135750       20.36704841
C          11.97429320       16.48448797       19.76489288
C          11.72499493       15.34658749       20.63008393
C          11.25421682       14.16774861       20.05060042
C          11.81541154       12.91404727       20.48692111
C          14.11080913       11.07569995       20.28711003
C          13.03681815       11.14705751       19.23983936
C          11.96487343       12.07309284       19.30799999
C          11.46543991       12.78864639       18.15074854
C          11.10014397       14.09188514       18.63449653
C          11.23552788       15.21894644       17.76742267
C          11.80569808       16.43328226       18.41084292
C          12.72367116       17.19098853       17.49197770
C          13.84138999       17.79866031       18.12095296
C          17.05105997       16.10429378       20.80667649
C          16.41457865       15.93564291       16.17232890
C          17.35296551       15.92508306       17.22089672
C          17.91705029       14.61975019       17.69737026
C          17.49467172       13.38903859       17.09115084
C          16.50700805       13.39856632       15.97673115
C          14.52058276       14.72314217       15.33144598
C          14.12823708       16.08415828       15.72472860
C          15.26678600       16.84183298       16.30116836
C          15.15329200       17.66838288       17.47282770
C          16.16132662       17.60137707       18.55880640
C          17.23370495       16.70486687       18.42786889
C          18.12006632       14.66444237       19.15726763
C          17.90134821       13.52693602       19.92297374
C          17.47517202       12.27548491       19.31349336
C          17.24040916       12.23043822       17.92377725
C          16.09563099       11.52471354       17.41001005
C          15.62983567       12.23282844       16.21602093
C          14.26573385       12.35058556       15.89301152
C          13.72630186       13.61786643       15.48861276
C          12.85678568       16.26378182       16.37088722
C          11.99358033       15.08610902       16.52319427
C          12.40756414       13.83649252       16.05889381
C          12.17775894       12.67860442       16.94799564
C          13.28763635       11.74254745       16.87095930
C          13.72465793       10.97449075       17.95839231
C          15.18203490       10.86960002       18.25834551
C          15.39746908       10.91470685       19.69096627
C          16.44675200       11.66990232       20.22377208
C          17.69671164       15.96525674       19.53906197
C          17.24032325       13.68142719       21.24755610
C          15.97620799       14.63459047       15.59510654
176
MD Time 103.35
C          10.78007337       13.09922471       10.18942821
C           8.95635509       11.62399933       10.30547228
C           9.88996229       10.51764734       10.18519896
C          11.22898845       10.72874906       10.03727221
C          11.68280010       12.04678609       10.06150315
C          13.01087085       12.65922258        9.98675526
N          12.93315444       14.03945925       10.05851535
N          14.16036290       11.98361587        9.82318775
N          17.69176895       15.27172654        9.15331625
C          15.35934785       12.54023011        9.63633013
C          16.63822631       11.85044451        9.46383005
C          16.98887305       10.52146320        9.36666784
C          18.35119944       10.22687237        9.20350148
C          19.36605431       11.23185201        8.91414422
C          18.98723586       12.60558361        8.94778680
C          17.64282887       12.84351668        9.17087082
C          16.97624919       14.11576922        9.28846291
N          15.64668193       13.88270191        9.55334032
C          11.64124919       14.35371716       10.13379404
C           9.40480725       12.93254410       10.27761222
C          17.13174660       16.50267965        9.28446052
C          19.25849716       18.00141711        8.64780148
C          13.44296314       18.40035836       10.05717604
C          12.15964801       19.13097057       10.21443611
C          11.83830436       20.49150173       10.16805600
C          10.47515250       20.78313743       10.17863568
C           9.43297165       19.84451434       10.15862190
C           9.74584731       18.43361128       10.22881823
C          11.09108361       18.14099062       10.19424910
C          11.73311690       16.82305103       10.15054337
N          13.09527427       17.01204885        9.98130976
N          11.11624658       15.61634514       10.17094436
C          17.91954680       17.74855655        9.06910384
C          19.69165464       19.37674593        8.69890633
C          18.83423863       20.42388721        9.16543808
C          17.51181413       20.15723077        9.51799170
C          17.04240495       18.82348024        9.43088936
C          15.75901016       18.19825556        9.65701344
N          15.83040823       16.81222049        9.62825760
N          14.65496944       18.92358067        9.87372614
H          13.81335531       16.27976238       10.03040366
H          14.95336629       14.63614240        9.89553222
H          10.14225596       21.79582759        9.95253907
H          12.53226343       21.30671733       10.10874740
H          16.80871591       20.96750187        9.76461357
H          19.28215370       21.40644010        9.25021773
H          20.74746263       19.61516999        8.49987855
H          19.90964845       17.24825123        8.27639005
H          19.75445605       13.36543201        8.60318606
H          20.38225107       10.96064101        8.81553908
H          18.67053632        9.16334642        9.22858951
H          16.32012242        9.66600158        9.51504868
H          11.93883614        9.94428815       10.10556949
H           9.44091385        9.50519811       10.24799119
H           7.87293698       11.40288004       10.43725243
H           8.81264070       13.75348829       10.40104237
H           9.01701363       17.66269936       10.17624074
H           8.40294450       20.18158576       10.07793367
C          10.24069984       11.68155801       13.24492323
C           8.59117795        9.92813249       13.45614012
C           9.60467238        8.98239523       13.62591155
C          10.97287700        9.35670824       13.52144657
C          11.28923128       10.68040546       13.29242341
C          12.54395476       11.46348127       13.25901699
N          12.27682597       12.79488913       13.28228131
N          13.77155359       10.92844926       13.16057357
N          17.24124708       14.21453874       12.29890596
C          14.96048288       11.51909928       13.03577877
C          16.22566561       10.81000969       12.97168806
C          16.60062855        9.44461353       13.18823763
C          17.93966135        9.16273149       13.04039824
C          18.89483755       10.17373366       12.63150774
C          18.60189103       11.52366112       12.55540649
C          17.24206296       11.83322054       12.62010201
C          16.55433589       13.07668498       12.46056932
N          15.24149441       12.88656630       12.73720982
C          10.92153730       12.97434936       13.21325175
C           8.90653791       11.28965826       13.22656630
C          16.61535233       15.38560907       12.36063559
C          18.67216712       17.07122584       11.95139249
C          12.72946680       17.01142084       13.08433816
C          11.47417893       17.73518529       13.27079651
C          11.24432695       19.12667571       13.52780145
C           9.87604305       19.50055260       13.58726926
C           8.84946180       18.57960799       13.37493327
C           9.08615043       17.17691525       13.22920410
C          10.39660909       16.74936534       13.12342038
C          11.04576791       15.40985142       13.08278325
N          12.40984301       15.66274420       12.94642654
N          10.37415892       14.23107394       13.09452090
C          17.37832461       16.69673510       12.27451504
C          19.04964406       18.40269178       12.02116085
C          18.14090027       19.36402157       12.52643608
C          16.86981360       18.97759334       12.92971211
C          16.42526792       17.67011428       12.68082357
C          15.09884404       16.98340280       12.81827454
N          15.23787321       15.60981554       12.61679077
N          13.94864385       17.58188417       13.03810027
H          13.07254080       14.94075585       12.80436379
H          14.59807606       13.69637982       12.69189791
H           9.59984540       20.54942554       13.70197495
H          12.09898352       19.74466938       13.64459187
H          16.16407999       19.70387820       13.34419614
H          18.49137614       20.38008091       12.70969422
H          20.07697315       18.61648104       11.68312375
H          19.37227008       16.23751396       11.62454437
H          19.36673987       12.30905914       12.45691017
H          19.90346319        9.83471281       12.53387627
H          18.37352929        8.12244355       13.08748299
H          15.88009592        8.75004884       13.59963570
H          11.74894693        8.60999681       13.60200343
H           9.32745859        7.91611392       13.90030222
H           7.52151092        9.61305757       13.44339616
H           8.15423467       12.08310980       13.16179033
H           8.25800106       16.49813535       13.01082450
H           7.81023729       18.88462089       13.34357038
C          13.28613493       14.08833760       22.07085914
C          14.66329822       13.97249279       22.39146689
C          15.48098456       15.09130846       22.22931899
C          14.90858571       16.30977777       21.81341146
C          13.54810009       16.41057209       21.58227641
C          12.71119677       15.27981679       21.68927151
C          12.85335744       12.84839321       21.45248946
C          13.93802467       11.92690116       21.43495527
C          15.09961236       12.61726614       21.98740260
C          16.33222146       12.47163758       21.42947211
C          16.82729296       14.91873124       21.66480528
C          15.88393747       16.97856183       20.94106094
C          15.48034608       17.73659148       19.83476423
C          14.01236760       17.85326710       19.58264863
C          13.08191511       17.17428999       20.36745881
C          11.97508173       16.48320922       19.76640938
C          11.72645701       15.34377235       20.63156795
C          11.25475120       14.16699763       20.05011399
C          11.81474831       12.91852078       20.48478439
C          14.11160648       11.07439854       20.28547719
C          13.03826788       11.14428870       19.24077817
C          11.96815808       12.07285602       19.30379632
C          11.46876762       12.78780245       18.15005769
C          11.10113828       14.09039372       18.63228258
C          11.24045916       15.22293823       17.76496800
C          11.80484139       16.42839268       18.41036418
C          12.72352871       17.19423873       17.48698688
C          13.83652452       17.79799961       18.12024093
C          17.04854037       16.10597442       20.80683147
C          16.41655811       15.93456075       16.17365464
C          17.34955089       15.93117642       17.21994187
C          17.91948548       14.61699006       17.70143612
C          17.49733474       13.39144442       17.08804182
C          16.50881225       13.40155705       15.97589159
C          14.52166359       14.72479342       15.33463798
C          14.13071025       16.08187790       15.72552279
C          15.27238487       16.84367162       16.30180041
C          15.15410314       17.66978465       17.47096228
C          16.15953178       17.59971907       18.55859307
C          17.23376075       16.70537125       18.42991215
C          18.11986373       14.66027495       19.15530345
C          17.89936212       13.52876834       19.92303491
C          17.47666418       12.27680262       19.31261698
C          17.24290396       12.22994992       17.92679138
C          16.09010495       11.52434515       17.41126890
C          15.63062779       12.23661284       16.22187526
C          14.26304512       12.35132542       15.89370677
C          13.72437193       13.61835631       15.49066629
C          12.85479608       16.26484165       16.37159851
C          11.99327902       15.08746064       16.52730686
C          12.40872715       13.83385568       16.06418010
C          12.17920221       12.67927684       16.94701744
C          13.28496455       11.74511767       16.87229120
C          13.72718311       10.97443016       17.95533757
C          15.18327233       10.87015610       18.26087099
C          15.39682215       10.91525908       19.69058537
C          16.44393753       11.66707693       20.22362223
C          17.69337753       15.96177739       19.54188837
C          17.24302005       13.67657450       21.24688939
C          15.97281209       14.63914071       15.59629798
176
MD Time 124.02
C          10.77921903       13.10126695       10.18855476
C           8.95574802       11.62308728       10.30260575
C           9.89234640       10.51963914       10.18353995
C          11.23100374       10.73027974       10.03833748
C          11.68502071       12.04305708       10.06427191
C          13.01285280       12.65819876        9.98848242
N          12.93505963       14.04384595       10.05831111
N          14.16234941       11.98422238        9.82459133
N          17.69029762       15.27098130        9.15203647
C          15.35985388       12.54111079        9.63434596
C          16.63673393       11.85041040        9.45841869
C          16.98654107       10.52107323        9.36332567
C          18.34761833       10.22711221        9.20523596
C          19.36686705       11.23283254        8.91246494
C          18.98819453       12.60767662        8.94262561
C          17.64110741       12.84132782        9.16860212
C          16.97629293       14.11705540        9.28641599
N          15.64864645       13.88470585        9.55111433
C          11.63997939       14.35113500       10.12889158
C           9.40538025       12.93007370       10.27551570
C          17.12997839       16.50268425        9.28361958
C          19.25675561       18.00212389        8.64548081
C          13.44757239       18.40151926       10.05807779
C          12.15862189       19.13222689       10.21737317
C          11.83513708       20.48965542       10.17098495
C          10.47334283       20.78039398       10.17958138
C           9.43707025       19.84928681       10.15823853
C           9.74398782       18.43504010       10.23025061
C          11.09007299       18.14168394       10.19340613
C          11.73241734       16.82679646       10.15179056
N          13.09746353       17.01047603        9.98087465
N          11.11543855       15.61689991       10.17251099
C          17.92089481       17.74927752        9.06597348
C          19.69218294       19.37184014        8.70238499
C          18.83652905       20.42922535        9.16388177
C          17.51167152       20.15915168        9.51677282
C          17.04463042       18.82550119        9.43122820
C          15.75771658       18.19776085        9.65923887
N          15.82952461       16.81237422        9.62534540
N          14.65523746       18.92300351        9.87675074
H          13.81501049       16.27697902       10.03025114
H          14.94640325       14.62527499        9.90075854
H          10.15189210       21.79641129        9.95841370
H          12.53046223       21.30409308       10.10820630
H          16.80564439       20.96861845        9.77157708
H          19.29225363       21.40999142        9.24314502
H          20.74650694       19.61733157        8.48647931
H          19.92204185       17.26024744        8.26859899
H          19.75483509       13.36342072        8.58760575
H          20.38884908       10.96179050        8.81793998
H          18.65723216        9.16449027        9.23174984
H          16.31277625        9.66505155        9.51793108
H          11.94160905        9.94044514       10.09794809
H           9.43767262        9.50778262       10.25410522
H           7.87145507       11.39637167       10.42687779
H           8.81464491       13.76001601       10.40509066
H           9.01201551       17.66345753       10.17181724
H           8.39410440       20.18035927       10.08323515
C          10.23824435       11.67979103       13.24057263
C           8.58821050        9.92785177       13.45579733
C           9.60511854        8.98076098       13.62240255
C          10.96898876        9.35371681       13.52158738
C          11.29125156       10.67911140       13.29407282
C          12.54128589       11.46143018       13.25939697
N          12.27367598       12.79603760       13.28319347
N          13.77057537       10.92843408       13.15893982
N          17.24276991       14.21436169       12.30001859
C          14.96128822       11.51952168       13.03834378
C          16.22379519       10.80773445       12.97238611
C          16.59941682        9.44565174       13.18815106
C          17.94087274        9.16495894       13.03966657
C          18.89357748       10.17273540       12.63169493
C          18.60005022       11.52091066       12.55642174
C          17.24232426       11.83549328       12.61844243
C          16.55506975       13.07786605       12.45522227
N          15.24314707       12.88849791       12.73574959
C          10.92430689       12.97569667       13.20961508
C           8.91092211       11.28889551       13.22729083
C          16.61828860       15.38600419       12.35886256
C          18.67073625       17.06904252       11.95338985
C          12.73124026       17.01069031       13.08323030
C          11.47471153       17.73296039       13.27052050
C          11.24423698       19.12981228       13.52474177
C           9.87689430       19.50175171       13.59285340
C           8.84990085       18.57982259       13.37401755
C           9.08672175       17.17599193       13.22693202
C          10.39724451       16.75123944       13.12582614
C          11.04686926       15.40971957       13.08090290
N          12.40784559       15.66261517       12.94634171
N          10.37087254       14.23219933       13.09141442
C          17.38230494       16.69445104       12.27564347
C          19.04931743       18.40258305       12.02169609
C          18.13878767       19.36563747       12.52767593
C          16.86831733       18.97757021       12.93099686
C          16.42551490       17.66999289       12.68247395
C          15.09997494       16.98866686       12.82359661
N          15.23710283       15.60896034       12.61559044
N          13.95306611       17.58352753       13.03656327
H          13.06997428       14.93549660       12.80507914
H          14.60714309       13.70310381       12.70448645
H           9.59465866       20.55165880       13.69738514
H          12.10343881       19.75029055       13.66236646
H          16.16334300       19.70223382       13.34742601
H          18.48342922       20.38376086       12.71711640
H          20.07564297       18.61047709       11.68408179
H          19.37598498       16.23765272       11.62660041
H          19.36567571       12.30597080       12.45190321
H          19.90690664        9.84570727       12.55084335
H          18.37339649        8.11777669       13.08405250
H          15.87637104        8.75475306       13.60779389
H          11.74050946        8.60171099       13.59849950
H           9.32041053        7.91611090       13.90477881
H           7.51842132        9.61812324       13.42625328
H           8.16241413       12.09226624       13.16059210
H           8.26215144       16.49595697       13.00225297
H           7.80887364       18.88662799       13.34543877
C          13.29077965       14.08531955       22.06904441
C          14.65983545       13.97109472       22.38871933
C          15.47922897       15.09279428       22.23292219
C          14.91073968       16.30583910       21.81801965
C          13.54784855       16.40837261       21.58822172
C          12.71347664       15.27936880       21.68750142
C          12.85396675       12.84577701       21.45246574
C          13.93786270       11.92749604       21.43516321
C          15.09493823       12.61749158       21.98957114
C          16.33211977       12.46739377       21.42966487
C          16.82795858       14.91979999       21.66526053
C          15.88791791       16.98276761       20.94524575
C          15.47898161       17.73921684       19.83393885
C          14.01265921       17.85547573       19.58525804
C          13.07990003       17.17732699       20.36807517
C          11.97585834       16.48195514       19.76829623
C          11.72775358       15.34087139       20.63296254
C          11.25534091       14.16630649       20.04973639
C          11.81432431       12.92271455       20.48269045
C          14.11189003       11.07330680       20.28409286
C          13.03990567       11.14152887       19.24168860
C          11.97151167       12.07235956       19.29979695
C          11.47223637       12.78692904       18.14938706
C          11.10187512       14.08915825       18.62968582
C          11.24567569       15.22694134       17.76280651
C          11.80381076       16.42368679       18.40954293
C          12.72320825       17.19710297       17.48232323
C          13.83174175       17.79736062       18.11932346
C          17.04604670       16.10760025       20.80696463
C          16.41853384       15.93341488       16.17509381
C          17.34636820       15.93682133       17.21907879
C          17.92181868       14.61404853       17.70524734
C          17.50004470       13.39409599       17.08494579
C          16.51071219       13.40453269       15.97534795
C          14.52321742       14.72678931       15.33782832
C          14.13285355       16.07976213       15.72666416
C          15.27797779       16.84532401       16.30242657
C          15.15484208       17.67107523       17.46912236
C          16.15762289       17.59808171       18.55826099
C          17.23369245       16.70616881       18.43174690
C          18.11972561       14.65609223       19.15292728
C          17.89731963       13.53048716       19.92335429
C          17.47790589       12.27811556       19.31190091
C          17.24546384       12.22947696       17.92987988
C          16.08451037       11.52392726       17.41240923
C          15.63137074       12.24055039       16.22757126
C          14.26036350       12.35184737       15.89479117
C          13.72227380       13.61895190       15.49266189
C          12.85311959       16.26588975       16.37202394
C          11.99292486       15.08890571       16.53136912
C          12.40988502       13.83100658       16.06968364
C          12.18052961       12.67987438       16.94599460
C          13.28246457       11.74776538       16.87327915
C          13.72977241       10.97446499       17.95240659
C          15.18449677       10.87075227       18.26312671
C          15.39611752       10.91586093       19.69018176
C          16.44157263       11.66423782       20.22337560
C          17.68996616       15.95837981       19.54531281
C          17.24568915       13.67132340       21.24603778
C          15.96929652       14.64376407       15.59743894
176
MD Time 144.69
C          10.77853881       13.10365242       10.18756600
C           8.95506862       11.62185758       10.29968182
C           9.89411609       10.52164360       10.18190157
C          11.23320785       10.73186113       10.03951746
C          11.68735677       12.03943209       10.06703060
C          13.01498480       12.65708813        9.99020180
N          12.93722238       14.04818338       10.05808460
N          14.16434355       11.98471197        9.82599833
N          17.68862076       15.27024341        9.15076120
C          15.36036665       12.54181813        9.63236651
C          16.63524273       11.85050655        9.45279977
C          16.98432551       10.52040279        9.36010384
C          18.34435608       10.22737779        9.20680382
C          19.36714947       11.23384920        8.91104192
C          18.98946130       12.60948873        8.93717756
C          17.63914555       12.83929520        9.16648836
C          16.97667045       14.11858401        9.28429621
N          15.65035700       13.88713515        9.54906247
C          11.63823146       14.34887537       10.12404766
C           9.40625593       12.92730421       10.27339993
C          17.12837594       16.50265687        9.28265158
C          19.25478155       18.00325382        8.64328758
C          13.45199347       18.40258710       10.05890915
C          12.15766879       19.13328328       10.22017816
C          11.83187871       20.48763859       10.17398252
C          10.47135674       20.77787145       10.18034402
C           9.44115514       19.85363033       10.15793626
C           9.74213521       18.43701791       10.23157701
C          11.08941357       18.14225259       10.19267233
C          11.73167853       16.83013068       10.15290263
N          13.09969291       17.00913640        9.98058112
N          11.11454791       15.61752342       10.17409295
C          17.92235403       17.75003429        9.06284863
C          19.69264894       19.36681755        8.70597397
C          18.83898809       20.43430046        9.16225073
C          17.51134101       20.16105077        9.51547193
C          17.04708630       18.82750600        9.43148179
C          15.75640275       18.19726118        9.66154232
N          15.82861521       16.81252977        9.62238522
N          14.65537915       18.92251623        9.87985427
H          13.81642608       16.27447362       10.02930313
H          14.94193783       14.61137567        9.90347698
H          10.16191672       21.79818779        9.96522424
H          12.53052835       21.30203964       10.10761030
H          16.80315469       20.96903824        9.77878646
H          19.30191300       21.41460001        9.23614530
H          20.74479008       19.61920997        8.47265837
H          19.93563061       17.27005028        8.26044898
H          19.75236592       13.36038771        8.57391412
H          20.39803829       10.96185217        8.81959907
H          18.64375527        9.16660254        9.23478198
H          16.30495486        9.66526835        9.52086023
H          11.94600561        9.93438410       10.08960145
H           9.43569142        9.51137688       10.26005345
H           7.87160458       11.39009283       10.41622992
H           8.81234646       13.77150754       10.40976232
H           9.00532277       17.66266373       10.16756086
H           8.38557908       20.17907036       10.08866311
C          10.23597066       11.67791276       13.23619091
C           8.58508897        9.92764001       13.45534756
C           9.60554409        8.97888341       13.61897750
C          10.96500395        9.35061808       13.52170063
C          11.29314633       10.67810058       13.29579225
C          12.53877076       11.45922778       13.25974092
N          12.27065132       12.79730941       13.28400654
N          13.76962894       10.92832572       13.15740095
N          17.24425920       14.21421816       12.30103788
C          14.96193208       11.51992998       13.04077860
C          16.22219449       10.80566468       12.97297870
C          16.59806574        9.44702343       13.18815494
C          17.94247003        9.16704479       13.03867919
C          18.89222814       10.17151868       12.63211756
C          18.59815439       11.51822469       12.55737454
C          17.24229777       11.83740852       12.61690330
C          16.55613196       13.07898171       12.45005802
N          15.24457252       12.89042040       12.73430400
C          10.92702310       12.97735267       13.20592364
C           8.91521609       11.28820712       13.22814582
C          16.62127061       15.38673368       12.35709095
C          18.66953474       17.06642141       11.95529239
C          12.73311309       17.01008223       13.08214698
C          11.47516661       17.73074567       13.27023696
C          11.24389973       19.13244386       13.52161278
C           9.87791634       19.50308217       13.59837333
C           8.85031539       18.57970399       13.37312563
C           9.08718227       17.17526603       13.22451253
C          10.39827141       16.75312860       13.12845961
C          11.04766580       15.40952669       13.07890128
N          12.40573460       15.66257885       12.94634935
N          10.36759935       14.23333605       13.08838746
C          17.38580083       16.69202398       12.27696678
C          19.04908600       18.40252304       12.02225833
C          18.13691741       19.36721966       12.52895775
C          16.86653689       18.97758157       12.93222260
C          16.42576551       17.66982435       12.68417664
C          15.10144054       16.99373369       12.82883973
N          15.23655915       15.60812780       12.61435634
N          13.95716970       17.58535403       13.03509705
H          13.06963501       14.92821819       12.80571240
H          14.61619008       13.70869850       12.71746648
H           9.58977029       20.55416323       13.69319555
H          12.10897173       19.75788509       13.68029454
H          16.16262494       19.70078221       13.35063369
H          18.47537025       20.38775020       12.72413693
H          20.07351887       18.60566005       11.68559044
H          19.37816801       16.24053530       11.62933870
H          19.36397393       12.30226242       12.44628697
H          19.91269942        9.85613624       12.56747649
H          18.37142926        8.11553115       13.08124644
H          15.87211477        8.75864498       13.61549902
H          11.73300928        8.59272750       13.59527428
H           9.31440442        7.91891253       13.90800014
H           7.51688038        9.62353527       13.40965933
H           8.17030682       12.10048264       13.15924598
H           8.26617499       16.49355156       12.99442147
H           7.80702713       18.88948948       13.34748690
C          13.29518046       14.08204769       22.06729970
C          14.65652780       13.96962762       22.38607641
C          15.47766659       15.09392955       22.23669679
C          14.91303142       16.30223950       21.82255168
C          13.54754302       16.40657142       21.59384025
C          12.71561371       15.27896250       21.68576645
C          12.85416486       12.84331008       21.45248020
C          13.93785753       11.92784380       21.43509241
C          15.09006008       12.61784902       21.99187485
C          16.33240316       12.46327957       21.42958943
C          16.82851990       14.92112160       21.66564340
C          15.89196000       16.98699415       20.94936824
C          15.47740003       17.74179985       19.83318688
C          14.01302144       17.85763883       19.58763333
C          13.07815297       17.18045265       20.36892254
C          11.97661086       16.48071913       19.77052160
C          11.72888813       15.33791285       20.63425501
C          11.25597596       14.16568601       20.04944358
C          11.81417103       12.92656962       20.48064504
C          14.11165609       11.07242879       20.28297748
C          13.04172900       11.13878530       19.24254425
C          11.97492677       12.07161470       19.29604154
C          11.47583106       12.78604016       18.14873075
C          11.10235908       14.08819530       18.62671560
C          11.25113467       15.23089623       17.76097967
C          11.80263290       16.41921980       18.40841304
C          12.72268224       17.19956776       17.47801663
C          13.82709256       17.79675910       18.11820614
C          17.04359415       16.10914876       20.80709106
C          16.42048267       15.93223528       16.17662853
C          17.34347348       15.94196891       17.21835200
C          17.92403366       14.61096816       17.70875373
C          17.50280026       13.39695666       17.08189836
C          16.51268658       13.40749666       15.97510148
C          14.52520946       14.72910547       15.34101231
C          14.13464934       16.07784545       15.72816635
C          15.28352752       16.84678294       16.30303428
C          15.15549245       17.67225607       17.46732508
C          16.15559697       17.59647780       18.55782017
C          17.23349786       16.70724906       18.43337875
C          18.11964566       14.65194581       19.15017532
C          17.89522693       13.53204975       19.92393113
C          17.47888754       12.27940917       19.31136502
C          17.24806134       12.22902644       17.93298560
C          16.07892369       11.52349420       17.41344317
C          15.63202680       12.24464375       16.23308112
C          14.25772217       12.35215788       15.89626619
C          13.72003293       13.61966302       15.49459597
C          12.85178976       16.26691750       16.37213614
C          11.99254602       15.09041833       16.53533465
C          12.41102689       13.82800236       16.07538417
C          12.18172169       12.68038926       16.94494635
C          13.28017372       11.75046352       16.87391499
C          13.73240530       10.97459218       17.94962887
C          15.18567945       10.87137947       18.26508539
C          15.39535000       10.91649880       19.68976363
C          16.43968552       11.66140644       20.22304123
C          17.68649005       15.95506884       19.54928409
C          17.24829731       13.66574388       21.24503382
C          15.96570581       14.64841081       15.59853708
176
MD Time 165.37
C          10.77806640       13.10632713       10.18645773
C           8.95432719       11.62030437       10.29669566
C           9.89525870       10.52364850       10.18029020
C          11.23562451       10.73341733       10.04080977
C          11.68980569       12.03599243       10.06977766
C          13.01725955       12.65591406        9.99191649
N          12.93962268       14.05243517       10.05783323
N          14.16634270       11.98508314        9.82740809
N          17.68674745       15.26953221        9.14948880
C          15.36090035       12.54236158        9.63038681
C          16.63375021       11.85072901        9.44698086
C          16.98220225       10.51944840        9.35701097
C          18.34141763       10.22769135        9.20819787
C          19.36695345       11.23488042        8.90987206
C          18.99100020       12.61099406        8.93144917
C          17.63697397       12.83744444        9.16451411
C          16.97737566       14.12033045        9.28210558
N          15.65180195       13.88994418        9.54718546
C          11.63602758       14.34697489       10.11927626
C           9.40734899       12.92436692       10.27128285
C          17.12695529       16.50260128        9.28154713
C          19.25263478       18.00476106        8.64120175
C          13.45616394       18.40354376       10.05967924
C          12.15680605       19.13411836       10.22284532
C          11.82856572       20.48546893       10.17704435
C          10.46924086       20.77562939       10.18092864
C           9.44509580       19.85750467       10.15771732
C           9.74028537       18.43951296       10.23278794
C          11.08909311       18.14270431       10.19205622
C          11.73091725       16.83300934       10.15387406
N          13.10194718       17.00804824        9.98043123
N          11.11357564       15.61822116       10.17568354
C          17.92388844       17.75081564        9.05974397
C          19.69305778       19.36175526        8.70965798
C          18.84160933       20.43908398        9.16054701
C          17.51084408       20.16295463        9.51409610
C          17.04975057       18.82946947        9.43165042
C          15.75511259       18.19676573        9.66391110
N          15.82767679       16.81269216        9.61938235
N          14.65541782       18.92213133        9.88303433
H          13.81757873       16.27223418       10.02756973
H          14.93984095       14.59491266        9.90376248
H          10.17218661       21.80116013        9.97293652
H          12.53228533       21.30042800       10.10700206
H          16.80136439       20.96865515        9.78613954
H          19.31099398       21.42009646        9.22923080
H          20.74212985       19.62066049        8.45856305
H          19.94993336       17.27790218        8.25214473
H          19.74717267       13.35650771        8.56211790
H          20.40902187       10.96099496        8.82058147
H          18.63034915        9.16938218        9.23769466
H          16.29688356        9.66683612        9.52374976
H          11.95161438        9.92658237       10.08056041
H           9.43506375        9.51597557       10.26575430
H           7.87335920       11.38410293       10.40536990
H           8.80661555       13.78666305       10.41483145
H           8.99730066       17.66072128       10.16352095
H           8.37814270       20.17760515       10.09422168
C          10.23396564       11.67594130       13.23179122
C           8.58185506        9.92750359       13.45477756
C           9.60588481        8.97677943       13.61564525
C          10.96096810        9.34742784       13.52177972
C          11.29487754       10.67735094       13.29757564
C          12.53643468       11.45689296       13.26004939
N          12.26777935       12.79868790       13.28471900
N          13.76871293       10.92813109       13.15596221
N          17.24572442       14.21411828       12.30195392
C          14.96240036       11.52033264       13.04307582
C          16.22087114       10.80383874       12.97345816
C          16.59658123        9.44870119       13.18825963
C          17.94442235        9.16895296       13.03744455
C          18.89082432       10.17008773       12.63278107
C          18.59620182       11.51562967       12.55825304
C          17.24197945       11.83894040       12.61548272
C          16.55751184       13.08001757       12.44509039
N          15.24578106       12.89231427       12.73287813
C          10.92963081       12.97930091       13.20217902
C           8.91934427       11.28760347       13.22912233
C          16.62427249       15.38779166       12.35533267
C          18.66859976       17.06340377       11.95709458
C          12.73508697       17.00960668       13.08109081
C          11.47555572       17.72858647       13.26994980
C          11.24338460       19.13459695       13.51844537
C           9.87908487       19.50454066       13.60380660
C           8.85069499       18.57926095       13.37226350
C           9.08753127       17.17475429       13.22194966
C          10.39969095       16.75501045       13.13130741
C          11.04813284       15.40928524       13.07678454
N          12.40356987       15.66258838       12.94643882
N          10.36435509       14.23448046       13.08543934
C          17.38875815       16.68946724       12.27849709
C          19.04891530       18.40250578       12.02286144
C          18.13529955       19.36876201       12.53027933
C          16.86448276       18.97761932       12.93338722
C          16.42603875       17.66960373       12.68593064
C          15.10327725       16.99853983       12.83397640
N          15.23625851       15.60733609       12.61309386
N          13.96089839       17.58737225       13.03371394
H          13.07104758       14.91947561       12.80634834
H          14.62500640       13.71333493       12.73076563
H           9.58527502       20.55680557       13.68948715
H          12.11485395       19.76684556       13.69814285
H          16.16186543       19.69956835       13.35383814
H          18.46725712       20.39192740       12.73068036
H          20.07081058       18.60212623       11.68758181
H          19.37885639       16.24602958       11.63272235
H          19.36165088       12.29793232       12.44012060
H          19.92061597        9.86594565       12.58373196
H          18.36760937        8.11588384       13.07908623
H          15.86755440        8.76183830       13.62261420
H          11.72641598        8.58316910       13.59234669
H           9.30951338        7.92439909       13.90990246
H           7.51673663        9.62918330       13.39372777
H           8.17803438       12.10747107       13.15777880
H           8.27001953       16.49091584       12.98734078
H           7.80492953       18.89310471       13.34969017
C          13.29926650       14.07855719       22.06560998
C          14.65342962       13.96810502       22.38355885
C          15.47633047       15.09467013       22.24063807
C          14.91543147       16.29903452       21.82698575
C          13.54720042       16.40519352       21.59911101
C          12.71761462       15.27855638       21.68408940
C          12.85393136       12.84100951       21.45252071
C          13.93800129       11.92792158       21.43473238
C          15.08505705       12.61831523       21.99428408
C          16.33302881       12.45930852       21.42926761
C          16.82897717       14.92263801       21.66595220
C          15.89602131       16.99124735       20.95341336
C          15.47562083       17.74432050       19.83253955
C          14.01343115       17.85975166       19.58975363
C          13.07668489       17.18365078       20.37002265
C          11.97732670       16.47949659       19.77304713
C          11.72986492       15.33492670       20.63543510
C          11.25664483       14.16514366       20.04920756
C          11.81431641       12.93003043       20.47865336
C          14.11090835       11.07176633       20.28214684
C          13.04373292       11.13606642       19.24331951
C          11.97839544       12.07063303       19.29256653
C          11.47953560       12.78515050       18.14808400
C          11.10259633       14.08751646       18.62338759
C          11.25679087       15.23474335       17.75952453
C          11.80133578       16.41504839       18.40701739
C          12.72192640       17.20162171       17.47409303
C          13.82262447       17.79621035       18.11689606
C          17.04119726       16.11059785       20.80722793
C          16.42238221       15.93105198       16.17824039
C          17.34091964       15.94657615       17.21780512
C          17.92611635       14.60779282       17.71190816
C          17.50559944       13.39998673       17.07893410
C          16.51471328       13.41045246       15.97515042
C          14.52759657       14.73171265       15.34418423
C          14.13608554       16.07616176       15.73003895
C          15.28899677       16.84804348       16.30361232
C          15.15603964       17.67332861       17.46558563
C          16.15345186       17.59492045       18.55728086
C          17.23317760       16.70859667       18.43481681
C          18.11961629       14.64788521       19.14709173
C          17.89309157       13.53341693       19.92475959
C          17.47960126       12.28066958       19.31102766
C          17.25066970       12.22860477       17.93605263
C          16.07342220       11.52307976       17.41438158
C          15.63256187       12.24889261       16.23837874
C          14.25515133       12.35226809       15.89812843
C          13.71767786       13.62049864       15.49646501
C          12.85083291       16.26791590       16.37191286
C          11.99217229       15.09197110       16.53915498
C          12.41214166       13.82490448       16.08125923
C          12.18275949       12.68081200       16.94389278
C          13.27812813       11.75318159       16.87419592
C          13.73506101       10.97480983       17.94703056
C          15.18679022       10.87202791       18.26672477
C          15.39451432       10.91716111       19.68933991
C          16.43829892       11.65860159       20.22262794
C          17.68296356       15.95184921       19.55374063
C          17.25081118       13.65991001       21.24391134
C          15.96208861       14.65303168       15.59960043
176
MD Time 186.04
C          10.77782980       13.10923753       10.18522697
C           8.95354158       11.61842774       10.29364196
C           9.89577736       10.52564829       10.17871043
C          11.23827841       10.73486449       10.04221147
C          11.69236593       12.03281521       10.07251145
C          13.01966846       12.65470177        9.99362958
N          12.94223496       14.05656709       10.05755461
N          14.16834537       11.98533440        9.82881983
N          17.68469015       15.26886781        9.14821684
C          15.36146867       12.54275317        9.62840143
C          16.63225419       11.85107103        9.44096991
C          16.98015046       10.51821687        9.35405436
C          18.33880094       10.22807706        9.20941259
C          19.36635045       11.23590050        8.90894882
C          18.99275782       12.61216134        8.92545509
C          17.63462833       12.83579879        9.16266239
C          16.97839543       14.12226719        9.27984772
N          15.65298750       13.89306915        9.54547518
C          11.63339883       14.34546600       10.11459041
C           9.40855734       12.92141872       10.26918717
C          17.12572944       16.50252358        9.28029778
C          19.25038708       18.00658517        8.63919648
C          13.46002299       18.40437135       10.06039717
C          12.15604897       19.13471154       10.22536955
C          11.82524114       20.48317303       10.18016475
C          10.46704547       20.77373094       10.18134098
C           9.44876884       19.86087199       10.15758413
C           9.73842855       18.44247729       10.23387321
C          11.08909427       18.14304708       10.19156561
C          11.73015028       16.83539363       10.15470005
N          13.10421043       17.00722736        9.98042652
N          11.11252272       15.61899784       10.17727590
C          17.92546073       17.75160960        9.05667439
C          19.69341449       19.35673169        8.71342076
C          18.84438478       20.44355475        9.15877457
C          17.51020846       20.16488509        9.51265095
C          17.05259868       18.83136747        9.43173518
C          15.75388929       18.19628271        9.66633239
N          15.82670706       16.81286623        9.61634179
N          14.65537789       18.92186128        9.88628839
H          13.81846254       16.27023768       10.02506469
H          14.93977270       14.57658575        9.90180984
H          10.18256513       21.80526643        9.98152028
H          12.53545591       21.29902958       10.10643585
H          16.80033903       20.96742142        9.79354838
H          19.31934336       21.42624546        9.22240756
H          20.73839195       19.62155006        8.44433925
H          19.96433878       17.28417841        8.24395967
H          19.73953562       13.35207666        8.55214495
H          20.42082527       10.95943856        8.82096662
H          18.61727553        9.17247007        9.24049812
H          16.28875253        9.66986483        9.52652263
H          11.95791984        9.91764362       10.07086651
H           9.43581522        9.52146445       10.27113631
H           7.87656781       11.37843384       10.39437052
H           8.79855751       13.80384357       10.42000519
H           8.98844078       17.65816187       10.15975997
H           8.37245888       20.17588344       10.09990358
C          10.23231268       11.67389726       13.22738652
C           8.57855921        9.92745037       13.45407596
C           9.60608126        8.97448165       13.61240955
C          10.95693234        9.34415903       13.52181854
C          11.29640924       10.67683614       13.29941701
C          12.53430063       11.45444713       13.26032325
N          12.26508772       12.80015597       13.28532912
N          13.76782689       10.92785669       13.15462852
N          17.24717497       14.21407231       12.30275750
C          14.96268117       11.52073795       13.04522814
C          16.21982778       10.80229296       12.97381811
C          16.59497206        9.45065447       13.18847510
C          17.94668533        9.17066099       13.03597374
C          18.88942100       10.16844646       12.63368860
C          18.59418652       11.51314565       12.55904608
C          17.24136967       11.84006640       12.61417791
C          16.55919422       13.08096072       12.44033287
N          15.24678673       12.89415775       12.73147644
C          10.93207749       12.98152257       13.19838285
C           8.92323506       11.28708930       13.23021165
C          16.62726858       15.38916702       12.35359938
C          18.66795399       17.06004606       11.95879721
C          12.73716114       17.00927232       13.08006437
C          11.47589226       17.72652487       13.26966296
C          11.24276695       19.13630741       13.51527414
C           9.88037330       19.50612107       13.60913075
C           8.85102721       18.57850920       13.37143775
C           9.08777171       17.17446860       13.21924774
C          10.40149680       16.75686424       13.13435552
C          11.04824963       15.40900914       13.07455986
N          12.40142272       15.66258400       12.94659705
N          10.36115417       14.23562997       13.08256900
C          17.39113294       16.68679553       12.28024385
C          19.04876685       18.40252308       12.02352050
C          18.13393872       19.37025870       12.53163986
C          16.86216954       18.97767646       12.93448781
C          16.42635172       17.66932810       12.68773573
C          15.10551175       17.00302724       12.83898157
N          15.23621597       15.60660273       12.61180857
N          13.96420403       17.58958808       13.03242478
H          13.07357069       14.91000309       12.80710331
H          14.63337184       13.71721424       12.74431410
H           9.58126742       20.55944376       13.68633739
H          12.12028836       19.77649578       13.71563312
H          16.16100409       19.69863158       13.35705477
H          18.45914886       20.39616400       12.73667227
H          20.06777382       18.59996123       11.68996972
H          19.37822763       16.25383284       11.63664983
H          19.35876442       12.29302409       12.43345901
H          19.93021049        9.87514301       12.59957403
H          18.36200987        8.11881741       13.07759344
H          15.86294114        8.76447861       13.62898876
H          11.72063384        8.57322405       13.58972820
H           9.30574823        7.93224978       13.91048168
H           7.51773414        9.63493320       13.37855636
H           8.18567434       12.11300537       13.15621516
H           8.27364713       16.48805830       12.98101887
H           7.80284729       18.89734930       13.35202327
C          13.30296676       14.07488748       22.06396040
C          14.65059305       13.96653896       22.38118746
C          15.47525156       15.09497937       22.24473950
C          14.91790919       16.29627505       21.83130212
C          13.54683956       16.40425938       21.60401634
C          12.71948736       15.27811034       21.68249201
C          12.85325197       12.83888758       21.45257670
C          13.93828147       11.92771316       21.43407752
C          15.08001184       12.61886392       21.99676747
C          16.33395056       12.45549361       21.42872412
C          16.82933135       14.92428933       21.66618642
C          15.90005945       16.99553319       20.95736701
C          15.47366459       17.74675959       19.83202530
C          14.01386497       17.86180909       19.59160012
C          13.07550352       17.18690522       20.37139301
C          11.97799393       16.47828448       19.77583042
C          11.73069009       15.33194358       20.63649450
C          11.25733553       14.16468404       20.04899804
C          11.81478367       12.93304656       20.47671896
C          14.10965803       11.07131746       20.28161180
C          13.04590944       11.13338091       19.24398990
C          11.98190892       12.06942725       19.28940439
C          11.48333300       12.78427486       18.14744359
C          11.10259449       14.08712784       18.61972382
C          11.26259731       15.23842449       17.75847246
C          11.79994854       16.41123024       18.40540797
C          12.72092095       17.20325626       17.47057470
C          13.81838083       17.79572828       18.11540171
C          17.03886869       16.11192662       20.80739491
C          16.42421085       15.92989343       16.17991110
C          17.33875502       15.95060649       17.21747887
C          17.92805509       14.60456639       17.71466685
C          17.50843889       13.40314421       17.07608492
C          16.51676823       13.41340516       15.97549130
C          14.53032865       14.73457804       15.34733891
C          14.13715630       16.07474208       15.73228809
C          15.29434900       16.84910330       16.30415193
C          15.15647040       17.67429343       17.46391687
C          16.15118499       17.59342264       18.55665369
C          17.23273448       16.71019296       18.43607313
C          18.11962925       14.64395695       19.14372735
C          17.89092309       13.53455373       19.92582900
C          17.48004168       12.28188301       19.31090401
C          17.25326310       12.22821801       17.93902669
C          16.06808222       11.52271822       17.41523224
C          15.63294561       12.25329557       16.24344090
C          14.25267939       12.35219424       15.90037078
C          13.71524099       13.62146782       15.49826623
C          12.85026899       16.26887633       16.37133667
C          11.99183436       15.09353660       16.54278083
C          12.41321902       13.82177707       16.08728371
C          12.18362508       12.68113101       16.94285433
C          13.27636221       11.75588692       16.87412352
C          13.73771857       10.97511635       17.94463362
C          15.18779920       10.87268701       18.26802729
C          15.39360521       10.91783684       19.68892004
C          16.43743015       11.65583929       20.22214453
C          17.67940275       15.94872541       19.55861250
C          17.25319866       13.65389757       21.24270563
C          15.95849641       14.65757747       15.60063827
176
MD Time 206.71
C          10.77784986       13.11233199       10.18387189
C           8.95273717       11.61623443       10.29051467
C           9.89569105       10.52764448       10.17716472
C          11.24118985       10.73611785       10.04371874
C          11.69503740       12.02997093       10.07523048
C          13.02220183       12.65347788        9.99534439
N          12.94502970       14.06054820       10.05724631
N          14.17035147       11.98546389        9.83023284
N          17.68246381       15.26827125        9.14694198
C          15.36208470       12.54300740        9.62640450
C          16.63075278       11.85152309        9.43477443
C          16.97815351       10.51672513        9.35123925
C          18.33649803       10.22855911        9.21044421
C          19.36542053       11.23688246        8.90826322
C          18.99466504       12.61295406        8.91921710
C          17.63214814       12.83437870        9.16091459
C          16.97971026       14.12436479        9.27752749
N          15.65393978       13.89642879        9.54391329
C          11.63038390       14.34437610       10.11000173
C           9.40977906       12.91861609       10.26713621
C          17.12470861       16.50243153        9.27889577
C          19.24811510       18.00865769        8.63724139
C          13.46351355       18.40505291       10.06107212
C          12.15541051       19.13504366       10.22774674
C          11.82195146       20.48078343       10.18333730
C          10.46482260       20.77224065       10.18158759
C           9.45206383       19.86369822       10.15753930
C           9.73655321       18.44585323       10.23482256
C          11.08939521       18.14328872       10.19120763
C          11.72939447       16.83725190       10.15537668
N          13.10646626       17.00668704        9.98056778
N          11.11138932       15.61985717       10.17886319
C          17.92703338       17.75240425        9.05365428
C          19.69372323       19.35182415        8.71724595
C          18.84730486       20.44769813        9.15693874
C          17.50946735       20.16685846        9.51114031
C          17.05560494       18.83317735        9.43173787
C          15.75277371       18.19581996        9.66879393
N          15.82570486       16.81305662        9.61326767
N          14.65528465       18.92171790        9.88961412
H          13.81909121       16.26844729       10.02180681
H          14.94116495       14.55732046        9.89794242
H          10.19292402       21.81038288        9.99094903
H          12.53969207       21.29754894       10.10597530
H          16.80008965       20.96535094        9.80094333
H          19.32680452       21.43277033        9.21567675
H          20.73350074       19.62176402        8.43012428
H          19.97817295       17.28931877        8.23619917
H          19.72988080       13.34750443        8.54384337
H          20.43241896       10.95742114        8.82083823
H          18.60480033        9.17547998        9.24320422
H          16.28070545        9.67438179        9.52911513
H          11.96436858        9.90822601       10.06057747
H           9.43790504        9.52762605       10.27614098
H           7.88096273       11.37308932       10.38331126
H           8.78931738       13.82135101       10.42496960
H           8.97929611       17.65557713       10.15634794
H           8.36903824       20.17386520       10.10569070
C          10.23108889       11.67180243       13.22298881
C           8.57525832        9.92748946       13.45323336
C           9.60608043        8.97203773       13.60926840
C          10.95295045        9.34082193       13.52181146
C          11.29770821       10.67652625       13.30131064
C          12.53238850       11.45191346       13.26056364
N          12.26260342       12.80169668       13.28583531
N          13.76697070       10.92750832       13.15340437
N          17.24862036       14.21409075       12.30344011
C          14.96276522       11.52115443       13.04722866
C          16.21906227       10.80106068       12.97405359
C          16.59325099        9.45285141       13.18881002
C          17.94920250        9.17216063       13.03427994
C          18.88808789       10.16660017       12.63484208
C          18.59209888       11.51078538       12.55974347
C          17.24047320       11.84076757       12.61298506
C          16.56115970       13.08180036       12.43579779
N          15.24760625       12.89592813       12.73010244
C          10.93431447       12.98399705       13.19453617
C           8.92682429       11.28666312       13.23140557
C          16.63023456       15.39084358       12.35190204
C          18.66760386       17.05641823       11.96040781
C          12.73933244       17.00908543       13.07907002
C          11.47619142       17.72459947       13.26938022
C          11.24211908       19.13761520       13.51213524
C           9.88175403       19.50781373       13.61432411
C           8.85129951       18.57747040       13.37065545
C           9.08790989       17.17441615       13.21641113
C          10.40367506       16.75867095       13.13758973
C          11.04800032       15.40871347       13.07223481
N          12.39936669       15.66250240       12.94681050
N          10.35800902       14.23678258       13.07977462
C          17.39289344       16.68402500       12.28221376
C          19.04860039       18.40256492       12.02425113
C          18.13283390       19.37170376       12.53303988
C          16.85961536       18.97774781       12.93552113
C          16.42671953       17.66899617       12.68959256
C          15.10816032       17.00714516       12.84383357
N          15.23644498       15.60594431       12.61050610
N          13.96704879       17.59200490       13.03123859
H          13.07650893       14.90059060       12.80810013
H          14.64107086       13.72055466       12.75804872
H           9.57783667       20.56194154       13.68382002
H          12.12450916       19.78616522       13.73246467
H          16.15998345       19.69800235       13.36029438
H          18.45110620       20.40033452       12.74204261
H          20.06468630       18.59923583       11.69265828
H          19.37659844       16.26348046       11.64095757
H          19.35540962       12.28762402       12.42635068
H          19.94087379        9.88377752       12.61496728
H          18.35478994        8.12412058       13.07678972
H          15.85852707        8.76672484       13.63447181
H          11.71551738        8.56312899       13.58742436
H           9.30305389        7.94195024       13.90979533
H           7.51952967        9.64063417       13.36422255
H           8.19325203       12.11693433       13.15457566
H           8.27703532       16.48499891       12.97546020
H           7.80105522       18.90208364       13.35445989
C          13.30621278       14.07108023       22.06233661
C          14.64806621       13.96493963       22.37898230
C          15.47445791       15.09482894       22.24899316
C          14.92043450       16.29400574       21.83548422
C          13.54648023       16.40378484       21.60854279
C          12.72124107       15.27758666       21.68099459
C          12.85211899       12.83695118       21.45263927
C          13.93868128       11.92720900       21.43312658
C          15.07500812       12.61946631       21.99929276
C          16.33512044       12.45184680       21.42798551
C          16.82958395       14.92601522       21.66634689
C          15.90403318       16.99985780       20.96121707
C          15.47155262       17.74909958       19.83166936
C          14.01430001       17.86380646       19.59315644
C          13.07461284       17.19020012       20.37304750
C          11.97860162       16.47708163       19.77882655
C          11.73137124       15.32899391       20.63742725
C          11.25803592       14.16430819       20.04878296
C          11.81559103       12.93557397       20.47484335
C          14.10792350       11.07107701       20.28137819
C          13.04824813       11.13073746       19.24453239
C          11.98545836       12.06801057       19.28658274
C          11.48720623       12.78342778       18.14680793
C          11.10236255       14.08703035       18.61575141
C          11.26850716       15.24188368       17.75784854
C          11.79850086       16.40782268       18.40364320
C          12.71965035       17.20446580       17.46747964
C          13.81439964       17.79532537       18.11373248
C          17.03661900       16.11311578       20.80761374
C          16.42594908       15.92878645       16.18162340
C          17.33702259       15.95402998       17.21741065
C          17.92984090       14.60133278       17.71699050
C          17.51131449       13.40638572       17.07337937
C          16.51882664       13.41636067       15.97611884
C          14.53334950       14.73766649       15.35047158
C          14.13786210       16.07361455       15.73491635
C          15.29954934       16.84996283       16.30464665
C          15.15677316       17.67515084       17.46232926
C          16.14879372       17.59199693       18.55594946
C          17.23217322       16.71201634       18.43716245
C          18.11967558       14.64020281       19.14013882
C          17.88873241       13.53543037       19.92712381
C          17.48020556       12.28303620       19.31100618
C          17.25581752       12.22787160       17.94185692
C          16.06297729       11.52244346       17.41600041
C          15.63315196       12.25785013       16.24824821
C          14.25033194       12.35195727       15.90298243
C          13.71275681       13.62257893       15.49999792
C          12.85011080       16.26979077       16.37039546
C          11.99156299       15.09508788       16.54616375
C          12.41424976       13.81868559       16.09343107
C          12.18430212       12.68133275       16.94185129
C          13.27490764       11.75854546       16.87370402
C          13.74035760       10.97551070       17.94245549
C          15.18867722       10.87334581       18.26898087
C          15.39261762       10.91851647       19.68851370
C          16.43709049       11.65313193       20.22159914
C          17.67582473       15.94570121       19.56382339
C          17.25542954       13.64778144       21.24145240
C          15.95498269       14.66200114       15.60166078
176
MD Time 227.38
C          10.77813968       13.11556162       10.18239177
C           8.95194586       11.61373823       10.28730705
C           9.89503377       10.52964501       10.17565324
C          11.24437113       10.73709834       10.04532682
C          11.69782137       12.02752174       10.07793367
C          13.02484935       12.65226999        9.99706459
N          12.94797466       14.06435141       10.05690579
N          14.17236251       11.98546928        9.83164654
N          17.68008527       15.26776443        9.14565994
C          15.36276069       12.54314083        9.62438975
C          16.62924461       11.85207318        9.42840082
C          16.97619937       10.51499985        9.34856839
C          18.33449617       10.22915929        9.21129070
C          19.36424302       11.23780033        8.90780472
C          18.99663942       12.61333095        8.91276297
C          17.62957550       12.83320164        9.15925067
C          16.98129504       14.12659248        9.27515055
N          15.65470543       13.89992646        9.54247109
C          11.62702772       14.34372751       10.10552010
C           9.41092445       12.91609666       10.26515052
C          17.12390011       16.50233414        9.27733392
C          19.24589370       18.01090836        8.63530574
C          13.46658363       18.40557286       10.06171315
C          12.15490119       19.13509717       10.22997392
C          11.81874344       20.47833515       10.18655536
C          10.46262416       20.77122187       10.18167591
C           9.45488753       19.86595451       10.15758567
C           9.73465011       18.44957921       10.23562621
C          11.08997041       18.14343669       10.19098874
C          11.72866639       16.83856018       10.15590094
N          13.10869838       17.00643779        9.98085516
N          11.11017468       15.62080189       10.18043882
C          17.92856970       17.75318813        9.05069702
C          19.69398671       19.34710708        8.72111778
C          18.85035808       20.45150447        9.15504577
C          17.50865865       20.16888511        9.50956586
C          17.05874355       18.83487850        9.43166084
C          15.75180338       18.19538509        9.67128445
N          15.82467016       16.81326769        9.61016299
N          14.65516356       18.92171193        9.89300987
H          13.81949375       16.26681786       10.01781879
H          14.94322038       14.53824035        9.89260729
H          10.20314325       21.81633342       10.00119851
H          12.54460996       21.29566173       10.10568999
H          16.80057373       20.96251812        9.80827573
H          19.33322913       21.43937859        9.20903611
H          20.72744573       19.62121094        8.41604069
H          19.99076607       17.29376413        8.22916462
H          19.71876036       13.34330055        8.53698714
H          20.44282371       10.95517162        8.82027654
H          18.59317997        9.17803490        9.24582594
H          16.27283308        9.68032988        9.53147960
H          11.97042729        9.89897589       10.04976876
H           9.44123039        9.53415015       10.28072446
H           7.88617422       11.36804591       10.37227365
H           8.77993841       13.83763534       10.42942737
H           8.97041971       17.65355561       10.15335625
H           8.36821372       20.17155218       10.11155591
C          10.23036273       11.66967881       13.21860879
C           8.57201287        9.92763073       13.45224231
C           9.60583724        8.96950918       13.60621381
C          10.94907575        9.33742493       13.52175334
C          11.29874461       10.67638878       13.30325118
C          12.53071483       11.44931633       13.26077203
N          12.26035197       12.80329379       13.28623609
N          13.76614456       10.92709082       13.15229374
N          17.25007006       14.21418419       12.30399401
C          14.96264594       11.52159084       13.04907102
C          16.21856804       10.80017178       12.97416107
C          16.59143523        9.45526091       13.18927093
C          17.95190709        9.17345816       13.03237789
C          18.88690267       10.16455748       12.63624308
C          18.58992640       11.50855415       12.56033603
C          17.23929869       11.84102843       12.61189941
C          16.56338558       13.08252802       12.43149605
N          15.24825724       12.89760369       12.72875858
C          10.93629811       12.98670231       13.19063921
C           8.93005758       11.28631724       13.23269666
C          16.63314774       15.39280038       12.35025079
C          18.66753870       17.05260153       11.96194078
C          12.74159565       17.00904974       13.07810977
C          11.47647004       17.72284506       13.26910511
C          11.24150391       19.13855993       13.50906429
C           9.88319982       19.50960489       13.61936624
C           8.85150109       18.57617103       13.36992413
C           9.08795524       17.17459955       13.21344399
C          10.40620497       16.76041354       13.14099612
C          11.04737436       15.40841433       13.06981692
N          12.39747021       15.66228448       12.94706667
N          10.35492955       14.23793690       13.07705351
C          17.39402111       16.68117344       12.28441081
C          19.04837636       18.40262029       12.02506883
C          18.13197835       19.37309068       12.53448128
C          16.85684107       18.97783043       12.93648394
C          16.42715527       17.66860814       12.69150280
C          15.11122814       17.01085084       12.84851473
N          15.23695745       15.60537655       12.60919197
N          13.96940634       17.59462344       13.03016236
H          13.07920328       14.89198169       12.80944888
H          14.64791190       13.72356822       12.77191415
H           9.57506181       20.56418109       13.68200500
H          12.12685373       19.79524454       13.74833697
H          16.15875319       19.69769806       13.36356087
H          18.44319237       20.40432467       12.74672800
H          20.06182049       18.60000196       11.69555130
H          19.37441813       16.27436073       11.64542475
H          19.35171136       12.28185437       12.41883612
H          19.95190720        9.89191660       12.62987113
H          18.34618839        8.13139076       13.07669752
H          15.85454485        8.76873173       13.63892438
H          11.71089138        8.55314748       13.58543678
H           9.30130830        7.95280619       13.90796194
H           7.52171690        9.64612700       13.35078150
H           8.20073578       12.11918980       13.15287551
H           8.28017700       16.48176850       12.97066570
H           7.79981131       18.90716177       13.35697269
C          13.30894073       14.06717804       22.06072530
C          14.64589166       13.96331511       22.37696203
C          15.47397413       15.09419957       22.25338999
C          14.92297896       16.29226394       21.83951923
C          13.54614250       16.40378112       21.61268102
C          12.72288586       15.27695088       21.67961559
C          12.85053122       12.83520172       21.45270138
C          13.93918007       11.92640630       21.43188260
C          15.07012801       12.62009160       22.00182757
C          16.33649042       12.44837867       21.42707928
C          16.82973666       14.92775631       21.66643595
C          15.90790324       17.00422736       20.96495393
C          15.46930638       17.75132495       19.83149348
C          14.01471407       17.86573981       19.59440893
C          13.07401311       17.19352018       20.37499675
C          11.97914026       16.47588885       19.78198989
C          11.73191723       15.32610712       20.63822975
C          11.25873419       14.16401331       20.04852927
C          11.81675154       12.93757571       20.47302555
C          14.10572957       11.07103671       20.28144694
C          13.05073649       11.12814454       19.24492562
C          11.98903519       12.06639639       19.28412395
C          11.49113870       12.78262323       18.14617730
C          11.10191057       14.08721992       18.61150142
C          11.27447505       15.24506794       17.75767127
C          11.79702238       16.40488190       18.40178590
C          12.71810318       17.20524755       17.46482174
C          13.81071296       17.79501249       18.11189819
C          17.03445637       16.11414797       20.80790798
C          16.42758021       15.92775590       16.18336179
C          17.33575947       15.95682301       17.21763385
C          17.93146745       14.59813571       17.71884498
C          17.51422154       13.40966722       17.07084204
C          16.52086367       13.41932566       15.97702638
C          14.53659808       14.74094187       15.35357810
C          14.13820978       16.07280392       15.73792304
C          15.30456514       16.85062522       16.30509232
C          15.15693809       17.67590092       17.46083089
C          16.14627528       17.59065514       18.55517902
C          17.23150002       16.71404309       18.43810170
C          18.11974562       14.63665874       19.13638732
C          17.88653167       13.53602286       19.92862385
C          17.48009140       12.28411649       19.31134292
C          17.25831122       12.22757029       17.94449689
C          16.05817684       11.52228861       17.41668882
C          15.63315939       12.26255310       16.25278560
C          14.24813166       12.35158232       15.90594935
C          13.71026079       13.62383939       15.50165951
C          12.85036389       16.27065206       16.36908258
C          11.99138831       15.09659923       16.54925738
C          12.41522608       13.81569552       16.09967402
C          12.18477617       12.68140172       16.94090334
C          13.27379272       11.76112246       16.87294802
C          13.74295871       10.97599244       17.94050904
C          15.18939646       10.87399336       18.26957890
C          15.39154702       10.91919228       19.68813067
C          16.43728521       11.65048789       20.22099892
C          17.67224720       15.94277946       19.56929265
C          17.25747594       13.64163371       21.24018714
C          15.95160210       14.66625885       15.60267897
176
MD Time 248.05
C          10.77870463       13.11888059       10.18078680
C           8.95120447       11.61096011       10.28401185
C           9.89385299       10.53166283       10.17417391
C          11.24782422       10.73773785       10.04703008
C          11.70071990       12.02552027       10.08062028
C          13.02760052       12.65110646        9.99879416
N          12.95103605       14.06795361       10.05653032
N          14.17438159       11.98534784        9.83306048
N          17.67757290       15.26737001        9.14436552
C          15.36350757       12.54317154        9.62235055
C          16.62772901       11.85270711        9.42185421
C          16.97428093       10.51307653        9.34604197
C          18.33277944       10.22989418        9.21195157
C          19.36288991       11.23863069        8.90756188
C          18.99858870       12.61324750        8.90612504
C          17.62695394       12.83228206        9.15764942
C          16.98311992       14.12891856        9.27272318
N          15.65534903       13.90345505        9.54111115
C          11.62338000       14.34353783       10.10115377
C           9.41192190       12.91396995       10.26324607
C          17.12330845       16.50224145        9.27560546
C          19.24379064       18.01326982        8.63336114
C          13.46918722       18.40591728       10.06232909
C          12.15452890       19.13485623       10.23204916
C          11.81566128       20.47586257       10.18981246
C          10.46050010       20.77073411       10.18161440
C           9.45716684       19.86761848       10.15772621
C           9.73271562       18.45359434       10.23627528
C          11.09079168       18.14349771       10.19091474
C          11.72798199       16.83930231       10.15627068
N          13.11089113       17.00648712        9.98128828
N          11.10887698       15.62183371       10.18199639
C          17.93003486       17.75395047        9.04781473
C          19.69420569       19.34265076        8.72502138
C          18.85353075       20.45496720        9.15310249
C          17.50782408       20.17096939        9.50792716
C          17.06198914       18.83645275        9.43150693
C          15.75101190       18.19498559        9.67379378
N          15.82360410       16.81350350        9.60702955
N          14.65503954       18.92185282        9.89647482
H          13.81970845       16.26530373       10.01312586
H          14.94494708       14.52060418        9.88634919
H          10.21310920       21.82290432       10.01224404
H          12.54982425       21.29305136       10.10565174
H          16.80169948       20.95905302        9.81551863
H          19.33848769       21.44578603        9.20248154
H          20.72028413       19.61982616        8.40219181
H          20.00150700       17.29790793        8.22312464
H          19.70681967       13.34004797        8.53129067
H          20.45118521       10.95289006        8.81935330
H          18.58264917        9.17980598        9.24837644
H          16.26517127        9.68757105        9.53358583
H          11.97562629        9.89047572       10.03853216
H           9.44563507        9.54065094       10.28485766
H           7.89175311       11.36325661       10.36133724
H           8.77128583       13.85140964       10.43312106
H           8.96231529       17.65263189       10.15085188
H           8.37012801       20.16898716       10.11746515
C          10.23019219       11.66754790       13.21425569
C           8.56888367        9.92788412       13.45109718
C           9.60531543        8.96696941       13.60323203
C          10.94535850        9.33397551       13.52163943
C          11.29949252       10.67638965       13.30523368
C          12.52929261       11.44668088       13.26095013
N          12.25835702       12.80493204       13.28653009
N          13.76534901       10.92660804       13.15130016
N          17.25153316       14.21436307       12.30441219
C          14.96231951       11.52205610       13.05074920
C          16.21833469       10.79965256       12.97413832
C          16.58954676        9.45785443       13.18986156
C          17.95472380        9.17457418       13.03028334
C          18.88594438       10.16233175       12.63789327
C          18.58765464       11.50645021       12.56081562
C          17.23785803       11.84083679       12.61091531
C          16.56584665       13.08313774       12.42743717
N          15.24875649       12.89916554       12.72744644
C          10.93799066       12.98961502       13.18669138
C           8.93289217       11.28603818       13.23407826
C          16.63598722       15.39501190       12.34865493
C          18.66773124       17.04868577       11.96341696
C          12.74394369       17.00916639       13.07718532
C          11.47674644       17.72129243       13.26884082
C          11.24097118       19.13917779       13.50609482
C           9.88468498       19.51147622       13.62423803
C           8.85162430       18.57464130       13.36925164
C           9.08792008       17.17501712       13.21035021
C          10.40905958       16.76207685       13.14456112
C          11.04636673       15.40812872       13.06731355
N          12.39579156       15.66188075       12.94735519
N          10.35192300       14.23909211       13.07440214
C          17.39451100       16.67826035       12.28683631
C          19.04805863       18.40267806       12.02598820
C          18.13135980       19.37441200       12.53596714
C          16.85386942       18.97792399       12.93737323
C          16.42767008       17.66816555       12.69346915
C          15.11470893       17.01410968       12.85301128
N          15.23776386       15.60491454       12.60787160
N          13.97126240       17.59744155       13.02920109
H          13.08109452       14.88480199       12.81123454
H          14.65374551       13.72643596       12.78586099
H           9.57300800       20.56607335       13.68095847
H          12.12680612       19.80322071       13.76296846
H          16.15727368       19.69772011       13.36684928
H          18.43547399       20.40803824       12.75067324
H          20.05941542       18.60228892       11.69856193
H          19.37225064       16.28574148       11.64978254
H          19.34781445       12.27586413       12.41094748
H          19.96259685        9.89962485       12.64423700
H          18.33651481        8.14004251       13.07734146
H          15.85119152        8.77063498       13.64222921
H          11.70657194        8.54354796       13.58376502
H           9.30032594        7.96396911       13.90515594
H           7.52385849        9.65125353       13.33826748
H           8.20803569       12.11978918       13.15112351
H           8.28307904       16.47840779       12.96663316
H           7.79933537       18.91243935       13.35953334
C          13.31109309       14.06322336       22.05911471
C          14.64410523       13.96167140       22.37514369
C          15.47382112       15.09308150       22.25791968
C          14.92551667       16.29107917       21.84339824
C          13.54584623       16.40425502       21.61642536
C          12.72443242       15.27617268       21.67837124
C          12.84849370       12.83363524       21.45275789
C          13.93975384       11.92530886       21.43035280
C          15.06545037       12.62070737       22.00433996
C          16.33801376       12.44509841       21.42603317
C          16.82979105       14.92945523       21.66645755
C          15.91163270       17.00864784       20.96857063
C          15.46694701       17.75342231       19.83151579
C          14.01508595       17.86760580       19.59534653
C          13.07370126       17.19685063       20.37724844
C          11.97960210       16.47470911       19.78527554
C          11.73233791       15.32331118       20.63890055
C          11.25941936       14.16379267       20.04820375
C          11.81827291       12.93902225       20.47126182
C          14.10310668       11.07118540       20.28181434
C          13.05336016       11.12561036       19.24514994
C          11.99263108       12.06459808       19.28204522
C          11.49511450       12.78187431       18.14555404
C          11.10124945       14.08768793       18.60700815
C          11.28045810       15.24792779       17.75795236
C          11.79554220       16.40246228       18.39990129
C          12.71627219       17.20560127       17.46261123
C          13.80734687       17.79479881       18.10990873
C          17.03238653       16.11500795       20.80830270
C          16.42909095       15.92682446       16.18511321
C          17.33499667       15.95896755       17.21817734
C          17.93293098       14.59501876       17.72020155
C          17.51715471       13.41294439       17.06849336
C          16.52285474       13.42230717       15.97820625
C          14.54000966       14.74436821       15.35665493
C          14.13821241       16.07233142       15.74130430
C          15.30936601       16.85109609       16.30548706
C          15.15695693       17.67654350       17.45942761
C          16.14362686       17.58940830       18.55435319
C          17.23072221       16.71624800       18.43890931
C          18.11982922       14.63335448       19.13253742
C          17.88433405       13.53631305       19.93030475
C          17.47969917       12.28511173       19.31191937
C          17.26072492       12.22731818       17.94690520
C          16.05374551       11.52228580       17.41729777
C          15.63295092       12.26740072       16.25704236
C          14.24609851       12.35109831       15.90925463
C          13.70778860       13.62525552       15.50325163
C          12.85102669       16.27145415       16.36739683
C          11.99133902       15.09804663       16.55201841
C          12.41614186       13.81287128       16.10598480
C          12.18503499       12.68132053       16.94002907
C          13.27304193       11.76358306       16.87187006
C          13.74550373       10.97656162       17.93880284
C          15.18993100       10.87461901       18.26981996
C          15.39038965       10.91985847       19.68778054
C          16.43801384       11.64791143       20.22034978
C          17.66868829       15.93996221       19.57493705
C          17.25931252       13.63552248       21.23894467
C          15.94840986       14.67031061       15.60370451
176
MD Time 268.72
C          10.77954274       13.12224603       10.17905806
C           8.95055230       11.60792807       10.28062183
C           9.89220765       10.53371369       10.17272270
C          11.25153986       10.73798291       10.04882224
C          11.70373517       12.02400900       10.08328971
C          13.03044499       12.65001605       10.00053720
N          12.95417946       14.07133533       10.05611702
N          14.17641314       11.98509657        9.83447431
N          17.67494635       15.26711135        9.14305275
C          15.36433461       12.54311869        9.62028030
C          16.62620646       11.85340886        9.41513874
C          16.97239615       10.51099844        9.34365784
C          18.33133019       10.23077241        9.21242776
C          19.36142198       11.23935333        8.90752282
C          19.00041547       12.61265903        8.89933846
C          17.62432759       12.83163142        9.15608878
C          16.98515123       14.13131061        9.27025214
N          15.65594549       13.90690553        9.53979154
C          11.61949409       14.34382042       10.09690973
C           9.41271906       12.91231526       10.26143374
C          17.12293545       16.50216423        9.27370414
C          19.24186301       18.01568057        8.63138362
C          13.47128480       18.40607416       10.06292830
C          12.15429895       19.13430677       10.23397129
C          11.81274451       20.47339698       10.19310237
C          10.45849692       20.77083021       10.18141259
C           9.45885100       19.86867541       10.15796400
C           9.73075392       18.45784130       10.23676216
C          11.09182897       18.14347749       10.19099085
C          11.72735635       16.83946988       10.15648452
N          13.11302977       17.00683914        9.98186633
N          11.10749348       15.62295319       10.18352969
C          17.93139658       17.75468142        9.04501819
C          19.69437869       19.33852062        8.72894283
C          18.85680639       20.45808099        9.15111619
C          17.50700821       20.17310975        9.50622176
C          17.06531704       18.83788449        9.43127939
C          15.75042863       18.19462887        9.67631288
N          15.82250900       16.81376788        9.60386818
N          14.65493627       18.92214856        9.90000887
H          13.81977645       16.26386744       10.00775479
H          14.94525337       14.50569358        9.87975373
H          10.22271193       21.82986144       10.02405697
H          12.55497780       21.28944042       10.10593098
H          16.80333308       20.95513349        9.82266551
H          19.34247810       21.45173688        9.19600860
H          20.71214042       19.61757395        8.38865944
H          20.00988109       17.30206472        8.21829572
H          19.69474829       13.33836011        8.52643407
H          20.45681809       10.95073596        8.81812897
H          18.57341150        9.18054935        9.25086765
H          16.25770295        9.69589368        9.53542131
H          11.97958750        9.88320867       10.02697251
H           9.45092209        9.54669156       10.28852432
H           7.89720238       11.35865769       10.35057636
H           8.76402323       13.86168787       10.43584282
H           8.95540267       17.65325082       10.14889321
H           8.37472762       20.16625249       10.12337945
C          10.23062308       11.66543028       13.20993767
C           8.56592836        9.92825873       13.44979385
C           9.60448782        8.96450048       13.60030475
C          10.94184386        9.33048157       13.52146539
C          11.29993028       10.67649410       13.30725336
C          12.52813137       11.44403282       13.26109991
N          12.25663996       12.80659737       13.28671591
N          13.76458510       10.92606284       13.15042685
N          17.25301802       14.21463748       12.30468826
C          14.96178474       11.52255929       13.05225733
C          16.21834849       10.79952565       12.97398438
C          16.58761234        9.46060711       13.19058234
C          17.95757084        9.17554236       13.02801273
C          18.88528793       10.15994196       12.63979445
C          18.58526848       11.50446575       12.56117495
C          17.23616585       11.84018360       12.61002648
C          16.56851585       13.08362599       12.42362972
N          15.24911833       12.90059920       12.72616717
C          10.93936081       12.99271050       13.18269164
C           8.93529789       11.28580754       13.23554440
C          16.63873363       15.39744814       12.34712303
C          18.66813991       17.04476542       11.96486228
C          12.74636763       17.00943404       13.07629810
C          11.47704014       17.71996843       13.26859015
C          11.24055576       19.13949977       13.50325740
C           9.88618613       19.51340443       13.62892140
C           8.85166569       18.57291419       13.36864619
C           9.08781936       17.17566329       13.20713360
C          10.41220643       16.76364754       13.14827148
C          11.04497803       15.40787440       13.06473187
N          12.39437609       15.66125439       12.94766829
N          10.34899412       14.24024780       13.07181630
C          17.39437155       16.67530736       12.28948886
C          19.04761701       18.40272784       12.02702216
C          18.13096087       19.37565891       12.53750146
C          16.85072465       18.97803088       12.93818636
C          16.42827314       17.66767111       12.69549516
C          15.11858478       17.01689471       12.85731290
N          15.23887333       15.60457293       12.60655036
N          13.97261453       17.60045409       13.02835800
H          13.08176047       14.87951778       12.81351053
H          14.65847859       13.72928576       12.79984084
H           9.57172394       20.56756515       13.68074279
H          12.12401790       19.80969507       13.77610998
H          16.15551827       19.69805227       13.37014421
H          18.42802228       20.41140218       12.75383212
H          20.05765047       18.60609968       11.70162127
H          19.37073888       16.29681393       11.65373039
H          19.34387194       12.26981796       12.40270982
H          19.97227678        9.90694838       12.65800770
H          18.32613676        8.14932717       13.07874986
H          15.84861691        8.77253992       13.64429789
H          11.70238600        8.53458401       13.58240824
H           9.29986846        7.97448027       13.90159586
H           7.52552430        9.65586672       13.32669862
H           8.21500544       12.11883316       13.14932157
H           8.28575994       16.47496605       12.96335774
H           7.79979244       18.91778020       13.36211270
C          13.31261998       14.05925789       22.05749527
C          14.64273503       13.96001249       22.37354252
C          15.47401595       15.09147466       22.26257037
C          14.92802468       16.29047295       21.84711607
C          13.54561068       16.40520910       21.61977306
C          12.72589157       15.27522655       21.67727547
C          12.84601758       12.83224286       21.45280568
C          13.94037583       11.92392695       21.42854860
C          15.06104974       12.62128005       22.00679864
C          16.33964596       12.44201399       21.42487463
C          16.82974825       14.93105725       21.66641726
C          15.91518698       17.01312431       20.97206262
C          15.46449519       17.75538025       19.83175082
C          14.01539556       17.86940159       19.59596063
C          13.07367121       17.20017702       20.37980738
C          11.97998132       16.47354782       19.78864036
C          11.73264381       15.32063228       20.63944014
C          11.26008149       14.16363566       20.04777378
C          11.82015734       12.93989140       20.46954559
C          14.10009027       11.07150921       20.28247223
C          13.05610293       11.12314307       19.24518747
C          11.99623775       12.06262897       19.28035882
C          11.49911820       12.78119307       18.14494279
C          11.10039064       14.08842156       18.60230867
C          11.28641651       15.25041775       17.75869678
C          11.79408839       16.40061585       18.39805532
C          12.71415432       17.20552904       17.46085534
C          13.80432164       17.79469174       18.10777393
C          17.03041299       16.11568265       20.80882410
C          16.43047171       15.92601257       16.18686743
C          17.33475900       15.96045022       17.21906499
C          17.93423007       14.59202560       17.72103713
C          17.52010774       13.41617267       17.06634963
C          16.52477567       13.42531223       15.97965013
C          14.54351673       14.74791033       15.35969895
C          14.13788928       16.07221448       15.74505303
C          15.31392342       16.85138330       16.30583117
C          15.15682292       17.67707815       17.45812340
C          16.14084593       17.58826658       18.55348277
C          17.22984786       16.71860493       18.43960457
C          18.11991575       14.63031368       19.12865610
C          17.88215388       13.53628862       19.93213831
C          17.47903000       12.28601015       19.31273682
C          17.26304161       12.22711874       17.94904572
C          16.04974298       11.52246607       17.41782523
C          15.63251413       12.27238843       16.26101166
C          14.24425019       12.35053754       15.91287860
C          13.70537556       13.62683243       15.50477605
C          12.85209055       16.27219216       16.36534257
C          11.99144184       15.09940814       16.55440731
C          12.41699272       13.81027553       16.11233497
C          12.18506877       12.68107008       16.93924562
C          13.27267560       11.76589260       16.87048828
C          13.74797566       10.97721865       17.93734160
C          15.19025727       10.87521263       18.26970729
C          15.38914292       10.92051112       19.68747251
C          16.43927042       11.64540290       20.21965637
C          17.66516654       15.93725092       19.58067201
C          17.26091639       13.62951146       21.23775889
C          15.94546135       14.67412039       15.60474956
176
MD Time 289.39
C          10.78064525       13.12561753       10.17720761
C           8.95002790       11.60467692       10.27713063
C           9.89016596       10.53581273       10.17129429
C          11.25549731       10.73779728       10.05069643
C          11.70686826       12.02302002       10.08594107
C          13.03337255       12.64902781       10.00229761
N          12.95737048       14.07448013       10.05566294
N          14.17846243       11.98471237        9.83588748
N          17.67222679       15.26701240        9.14171511
C          15.36524888       12.54300225        9.61817290
C          16.62467900       11.85416093        9.40825858
C          16.97054801       10.50881538        9.34141199
C          18.33013032       10.23179229        9.21272145
C          19.35988713       11.23995136        8.90767547
C          19.00202324       12.61152575        8.89243917
C          17.62174058       12.83125813        9.15454637
C          16.98735227       14.13373539        9.26774473
N          15.65656676       13.91017891        9.53847285
C          11.61542619       14.34458474       10.09279455
C           9.41328148       12.91118371       10.25971970
C          17.12278040       16.50211388        9.27162441
C          19.24015517       18.01808649        8.62935513
C          13.47284379       18.40603367       10.06351848
C          12.15421397       19.13343670       10.23573952
C          11.81002659       20.47096499       10.19641886
C          10.45665646       20.77155353       10.18108126
C           9.45991320       19.86911930       10.15830213
C           9.72877840       18.46226756       10.23708059
C          11.09305111       18.14338050       10.19122170
C          11.72680345       16.83906218       10.15654182
N          13.11510055       17.00749419        9.98258801
N          11.10602073       15.62415949       10.18503238
C          17.93262575       17.75537205        9.04231709
C          19.69450200       19.33477703        8.73286862
C          18.86016510       20.46084004        9.14909475
C          17.50625737       20.17529901        9.50444580
C          17.06870296       18.83916066        9.43098185
C          15.75007847       18.19432241        9.67883347
N          15.82138847       16.81406438        9.60067930
N          14.65487546       18.92260545        9.90361220
H          13.81973564       16.26248834       10.00173395
H          14.94311456       14.49465085        9.87335842
H          10.23184201       21.83696793       10.03660025
H          12.55976476       21.28461497       10.10659346
H          16.80530875       20.95097405        9.82972654
H          19.34513199       21.45701940        9.18961420
H          20.70320348       19.61444884        8.37550396
H          20.01549355       17.30645257        8.21483097
H          19.68321551       13.33881914        8.52209915
H          20.45922729       10.94882262        8.81665161
H          18.56563327        9.18013546        9.25330866
H          16.25036452        9.70502302        9.53699014
H          11.98204005        9.87753714       10.01520427
H           9.45686951        9.55181657       10.29171738
H           7.90201717       11.35417860       10.34005834
H           8.75862011       13.86777545       10.43743515
H           8.94999685       17.65574485       10.14752708
H           8.38175979       20.16346891       10.12925641
C          10.23168758       11.66334548       13.20566254
C           8.56319802        9.92876175       13.44832949
C           9.60333570        8.96218779       13.59741105
C          10.93857058        9.32695295       13.52122731
C          11.30004082       10.67666749       13.30930532
C          12.52723742       11.44139847       13.26122358
N          12.25521973       12.80827677       13.28679207
N          13.76385447       10.92545719       13.14967695
N          17.25453191       14.21501683       12.30481635
C          14.96104313       11.52310943       13.05358933
C          16.21859283       10.79980979       12.97369950
C          16.58566348        9.46349836       13.19142996
C          17.96036213        9.17640654       13.02558309
C          18.88500009       10.15741326       12.64194814
C          18.58275392       11.50258826       12.56140736
C          17.23423933       11.83906317       12.60922614
C          16.57136455       13.08399166       12.42008199
N          15.24935342       12.90189553       12.72492210
C          10.94038408       12.99596224       13.17863924
C           8.93725772       11.28560317       13.23708944
C          16.64136862       15.40007452       12.34566318
C          18.66871362       17.04093439       11.96630539
C          12.74885646       17.00984888       13.07544943
C          11.47737161       17.71889610       13.26835555
C          11.24027721       19.13955072       13.50057929
C           9.88768263       19.51536088       13.63339857
C           8.85162667       18.57102484       13.36811630
C           9.08767049       17.17652882       13.20379845
C          10.41560791       16.76511374       13.15211360
C          11.04321457       15.40766976       13.06207924
N          12.39325505       15.66038282       12.94800098
N          10.34614561       14.24140381       13.06929165
C          17.39362428       16.67233860       12.29236401
C          19.04702944       18.40276075       12.02818116
C          18.13075949       19.37682100       12.53908881
C          16.84743241       18.97815627       12.93892111
C          16.42897158       17.66712871       12.69758490
C          15.12282604       17.01918577       12.86141176
N          15.24029343       15.60436612       12.60523382
N          13.97347153       17.60365247       13.02763483
H          13.08093493       14.87641613       12.81629634
H          14.66208279       13.73217657       12.81379902
H           9.57124023       20.56864312       13.68141626
H          12.11831540       19.81439074       13.78755355
H          16.15347458       19.69866036       13.37341884
H          18.42091408       20.41436966       12.75616787
H          20.05662440       18.61140683       11.70468476
H          19.37054666       16.30675694       11.65696100
H          19.34003257       12.26388430       12.39414413
H          19.98037614        9.91390492       12.67111808
H          18.31546136        8.15837095       13.08095540
H          15.84691605        8.77451332       13.64507563
H          11.69818787        8.52647829       13.58136647
H           9.29966453        7.98333888       13.89752404
H           7.52633310        9.65984083       13.31608460
H           8.22144736       12.11649916       13.14746478
H           8.28824697       16.47149978       12.96083238
H           7.80128118       18.92306113       13.36468085
C          13.31348032       14.05532255       22.05586042
C          14.64180082       13.95834063       22.37217193
C          15.47457173       15.08938893       22.26732790
C          14.93048299       16.29045882       21.85067057
C          13.54545422       16.40664177       21.62272338
C          12.72727372       15.27409235       21.67633986
C          12.84312007       12.83101136       21.45284372
C          13.94101703       11.92227735       21.42648601
C          15.05699590       12.62177521       22.00917283
C          16.34134526       12.43913271       21.42363051
C          16.82960882       14.93251047       21.66632222
C          15.91853355       17.01765995       20.97542718
C          15.46197118       17.75718902       19.83220944
C          14.01562404       17.87112445       19.59624489
C          13.07391424       17.20348473       20.38267533
C          11.98027419       16.47241305       19.79204336
C          11.73284589       15.31809493       20.63985063
C          11.26071202       14.16352793       20.04720807
C          11.82240117       12.94016819       20.46786753
C          14.09672045       11.07199154       20.28340806
C          13.05894651       11.12075106       19.24502212
C          11.99984631       12.06050249       19.27907254
C          11.50313438       12.78059036       18.14435061
C          11.09934609       14.08940397       18.59744305
C          11.29231345       15.25249662       17.75990262
C          11.79268764       16.39939165       18.39631331
C          12.71175112       17.20503505       17.45955894
C          13.80165230       17.79469693       18.10550372
C          17.02853745       16.11616118       20.80949899
C          16.43171678       15.92533843       16.18861722
C          17.33506506       15.96126157       17.22031519
C          17.93536531       14.58920054       17.72133453
C          17.52307293       13.41930699       17.06442331
C          16.52660268       13.42834706       15.98134912
C          14.54704959       14.75153408       15.36270702
C          14.13726601       16.07246659       15.74915824
C          15.31820994       16.85149661       16.30612697
C          15.15653066       17.67750408       17.45692075
C          16.13793088       17.58723943       18.55257867
C          17.22888565       16.72108679       18.44020702
C          18.11999427       14.62755444       19.12481199
C          17.88000677       13.53594285       19.93409278
C          17.47808610       12.28680023       19.31379233
C          17.26524624       12.22697489       17.95088760
C          16.04622420       11.52285904       17.41826712
C          15.63184111       12.27751013       16.26468979
C          14.24260267       12.34993538       15.91679850
C          13.70305638       13.62857374       15.50623544
C          12.85353946       16.27286249       16.36293015
C          11.99172078       15.10066392       16.55638883
C          12.41777612       13.80796856       16.11869474
C          12.18487036       12.68062993       16.93856828
C          13.27270959       11.76801674       16.86882425
C          13.75035842       10.97796409       17.93612662
C          15.19035453       10.87576485       18.26924837
C          15.38780590       10.92114808       19.68721528
C          16.44104357       11.64295923       20.21892218
C          17.66170129       15.93464700       19.58641222
C          17.26226686       13.62366053       21.23666265
C          15.94281182       14.67765581       15.60582644
176
MD Time 310.06
C          10.78199715       13.12895631       10.17523883
C           8.94966505       11.60124812       10.27353390
C           9.88780323       10.53797039       10.16988285
C          11.25966433       10.73716381       10.05264511
C          11.71011793       12.02257470       10.08857250
C          13.03637279       12.64817089       10.00407858
N          12.96057485       14.07737387       10.05516518
N          14.18053482       11.98419231        9.83729902
N          17.66943742       15.26709746        9.14034586
C          15.36625469       12.54284302        9.61602345
C          16.62315074       11.85494458        9.40121956
C          16.96874427       10.50658227        9.33929916
C          18.32916222       10.23294030        9.21283610
C          19.35831998       11.24041098        8.90800760
C          19.00332342       12.60981981        8.88546175
C          17.61923694       12.83116745        9.15300001
C          16.98968376       14.13615851        9.26520917
N          15.65726499       13.91319945        9.53712647
C          11.61123503       14.34583634       10.08881536
C           9.41359077       12.91060132       10.25810618
C          17.12283999       16.50210227        9.26936203
C          19.23869772       18.02044146        8.62726474
C          13.47383911       18.40578868       10.06410643
C          12.15427376       19.13223641       10.23735302
C          11.80753422       20.46858776       10.19975512
C          10.45501492       20.77293502       10.18063257
C           9.46035202       19.86895398       10.15874346
C           9.72681253       18.46682531       10.23722589
C          11.09442619       18.14320984       10.19161114
C          11.72633596       16.83808637       10.15644264
N          13.11709056       17.00844818        9.98345144
N          11.10445516       15.62545006       10.18649770
C          17.93369684       17.75601436        9.03972048
C          19.69456984       19.33147528        8.73678478
C          18.86358266       20.46323668        9.14704698
C          17.50561839       20.17752479        9.50259482
C          17.07212238       18.84027073        9.43061840
C          15.74998173       18.19407382        9.68134750
N          15.82024753       16.81439636        9.59746373
N          14.65487615       18.92322774        9.90728446
H          13.81961584       16.26116976        9.99509444
H          14.93778795       14.48829505        9.86754816
H          10.24038785       21.84400034       10.04982362
H          12.56394700       21.27844227       10.10769741
H          16.80744184       20.94681177        9.83672239
H          19.34641942       21.46147692        9.18329825
H          20.69372132       19.61047612        8.36276671
H          20.01808367       17.31118406        8.21281392
H          19.67279640       13.34189822        8.51801268
H          20.45811806       10.94721481        8.81495674
H          18.55944077        9.17856645        9.25570413
H          16.24305649        9.71463455        9.53831080
H          11.98282810        9.87369049       10.00334856
H           9.46324873        9.55559224       10.29443344
H           7.90573164       11.34975434       10.32984293
H           8.75537031       13.86924327       10.43778827
H           8.94629658       17.66032017       10.14678706
H           8.39077203       20.16079454       10.13505144
C          10.23340252       11.66131223       13.20143886
C           8.56073389        9.92939733       13.44670234
C           9.60184739        8.96011263       13.59453062
C          10.93557025        9.32340300       13.52092175
C          11.29981222       10.67687584       13.31138396
C          12.52661385       11.43880514       13.26132349
N          12.25411262       12.80995805       13.28675692
N          13.76315938       10.92479230       13.14905365
N          17.25608063       14.21550945       12.30479107
C          14.96009912       11.52371546       13.05473857
C          16.21904823       10.80051928       12.97328534
C          16.58373635        9.46651172       13.19239693
C          17.96301013        9.17721552       13.02301255
C          18.88513653       10.15477710       12.64435483
C          18.58010012       11.50080217       12.56150657
C          17.23209822       11.83747387       12.60850719
C          16.57436222       13.08423582       12.41680285
N          15.24946816       12.90305097       12.72371344
C          10.94104317       12.99934119       13.17453477
C           8.93876773       11.28540063       13.23870753
C          16.64387412       15.40285160       12.34428331
C          18.66939865       17.03727937       11.96777425
C          12.75139669       17.01040472       13.07464080
C          11.47776184       17.71809473       13.26813912
C          11.24013989       19.13934881       13.49808447
C           9.88915661       19.51731135       13.63765110
C           8.85151392       18.56901027       13.36767083
C           9.08749325       17.17760100       13.20035038
C          10.41922117       16.76646488       13.15607268
C          11.04108871       15.40753356       13.05936390
N          12.39244505       15.65925858       12.94835096
N          10.34337901       14.24255994       13.06682421
C          17.39230342       16.66938135       12.29545372
C          19.04628358       18.40277006       12.02947255
C          18.13072943       19.37788599       12.54073369
C          16.84402014       18.97830792       12.93957562
C          16.42977028       17.66654342       12.69974242
C          15.12739097       17.02096868       12.86530142
N          15.24202965       15.60430828       12.60392804
N          13.97385265       17.60702405       13.02703216
H          13.07851714       14.87559594       12.81957699
H          14.66459607       13.73509176       12.82766626
H           9.57156864       20.56933408       13.68303222
H          12.10970200       19.81715594       13.79713881
H          16.15114477       19.69949317       13.37663449
H          18.41423274       20.41692110       12.75765333
H          20.05634239       18.61814825       11.70773550
H          19.37227802       16.31482065       11.65919417
H          19.33642799       12.25822358       12.38527191
H          19.98645178        9.92047910       12.68349655
H          18.30490936        8.16623892       13.08399384
H          15.84612484        8.77657819       13.64454456
H          11.69387244        8.51941018       13.58064131
H           9.29943942        7.98959620       13.89317763
H           7.52599330        9.66308075       13.30643593
H           8.22712150       12.11303087       13.14554220
H           8.29057310       16.46807166       12.95904794
H           7.80382665       18.92817502       13.36720711
C          13.31364322       14.05145766       22.05420735
C          14.64131319       13.95665671       22.37104349
C          15.47549739       15.08684449       22.27217474
C          14.93287424       16.29104220       21.85406178
C          13.54539415       16.40854684       21.62527677
C          12.72858823       15.27275610       21.67557365
C          12.83982496       12.82992383       21.45287314
C          13.94164667       11.92038347       21.42418623
C          15.05335387       12.62215793       22.01143194
C          16.34307270       12.43646172       21.42232705
C          16.82937267       14.93376588       21.66618107
C          15.92164143       17.02225457       20.97866268
C          15.45939514       17.75884015       19.83289864
C          14.01575389       17.87277138       19.59619527
C          13.07441909       17.20675825       20.38585031
C          11.98047914       16.47131590       19.79544557
C          11.73295520       15.31572203       20.64013548
C          11.26130381       14.16345167       20.04647738
C          11.82499411       12.93984503       20.46621587
C          14.09304217       11.07261294       20.28460465
C          13.06187000       11.11844351       19.24463985
C          12.00344638       12.05823274       19.27818986
C          11.50714672       12.78007574       18.14378715
C          11.09812832       14.09061430       18.59245503
C          11.29811470       15.25412821       17.76156076
C          11.79136495       16.39883457       18.39473882
C          12.70906945       17.20412584       17.45872497
C          13.79934909       17.79481816       18.10310851
C          17.02676034       16.11643486       20.81035400
C          16.43282434       15.92481802       16.19035824
C          17.33592679       15.96139568       17.22194012
C          17.93633913       14.58658904       17.72108310
C          17.52604043       13.42230125       17.06272346
C          16.52831224       13.43141618       15.98329344
C          14.55053666       14.75520599       15.36567537
C          14.13637486       16.07309685       15.75360396
C          15.32219833       16.85144751       16.30637864
C          15.15607614       17.67782016       17.45582110
C          16.13488194       17.58633564       18.55165209
C          17.22784489       16.72366541       18.44073594
C          18.12005353       14.62509009       19.12107494
C          17.87790989       13.53527460       19.93613311
C          17.47687102       12.28747050       19.31507815
C          17.26732513       12.22688902       17.95240512
C          16.04323956       11.52349258       17.41861766
C          15.63092869       12.28275691       16.26807528
C          14.24117080       12.34933002       15.92098766
C          13.70086506       13.63048121       15.50763314
C          12.85534950       16.27346281       16.36017667
C          11.99219654       15.10179633       16.55793256
C          12.41849124       13.80600776       16.12503183
C          12.18443568       12.67997892       16.93801005
C          13.27315461       11.76992150       16.86690324
C          13.75263646       10.97879829       17.93515631
C          15.19020548       10.87626716       18.26845462
C          15.38637993       10.92176867       19.68701676
C          16.44331609       11.64057465       20.21814987
C          17.65831307       15.93215252       19.59207176
C          17.26334528       13.61802668       21.23568771
C          15.94051601       14.68088787       15.60694710
176
MD Time 330.73
C          10.78357780       13.13222406       10.17315675
C           8.94948815       11.59768957       10.26983055
C           9.88520008       10.54018752       10.16848295
C          11.26399780       10.73608656       10.05466006
C          11.71347855       12.02268334       10.09118050
C          13.03943518       12.64747416       10.00588194
N          12.96375804       14.08000376       10.05462120
N          14.18263436       11.98353460        9.83870734
N          17.66660594       15.26739048        9.13893795
C          15.36735300       12.54266258        9.61382896
C          16.62162778       11.85573998        9.39403110
C          16.96699685       10.50435730        9.33731357
C          18.32840903       10.23419080        9.21277648
C          19.35674178       11.24072093        8.90850665
C          19.00424295       12.60753305        8.87843762
C          17.61686035       12.83136122        9.15142835
C          16.99210208       14.13854291        9.26265535
N          15.65805713       13.91592476        9.53574154
C          11.60698222       14.34757661       10.08498071
C           9.41364381       12.91057170       10.25659212
C          17.12310707       16.50214300        9.26691518
C          19.23750759       18.02270806        8.62510944
C          13.47425413       18.40533515       10.06469780
C          12.15447494       19.13069956       10.23881066
C          11.80528692       20.46628064       10.20310306
C          10.45360208       20.77499034       10.18008033
C           9.46019218       19.86819452       10.15929031
C           9.72489022       18.47147061       10.23719513
C          11.09592178       18.14296719       10.19216200
C          11.72596484       16.83655794       10.15618798
N          13.11898752       17.00969162        9.98445377
N          11.10279382       15.62681993       10.18791804
C          17.93458806       17.75660068        9.03723720
C          19.69457500       19.32866574        8.74067598
C          18.86702952       20.46526069        9.14498310
C          17.50513729       20.17977036        9.50066482
C          17.07554943       18.84120729        9.43019384
C          15.75015403       18.19389068        9.68384664
N          15.81909236       16.81476685        9.59422359
N          14.65495387       18.92401733        9.91102393
H          13.81943450       16.25994638        9.98787182
H          14.92901113       14.48697294        9.86247033
H          10.24823456       21.85076237       10.06365915
H          12.56736569       21.27088319       10.10929086
H          16.80954464       20.94288800        9.84367577
H          19.34635216       21.46501440        9.17706484
H          20.68399402       19.60571122        8.35047318
H          20.01754046       17.31625777        8.21225171
H          19.66390457       13.34788333        8.51398586
H          20.45340637       10.94592763        8.81306717
H          18.55491987        9.17597795        9.25805315
H          16.23565885        9.72437177        9.53941257
H          11.98191326        9.87175776        9.99153004
H           9.46984234        9.55765168       10.29666693
H           7.90796756       11.34533784       10.31998263
H           8.75440570       13.86590666       10.43683799
H           8.94437828       17.66704798       10.14669202
H           8.40111882       20.15842257       10.14071905
C          10.23576786       11.65934881       13.19727700
C           8.55856450        9.93016532       13.44491187
C           9.60001641        8.95834257       13.59164732
C          10.93286701        9.31985017       13.52054590
C          11.29923838       10.67708633       13.31348254
C          12.52626053       11.43628188       13.26140217
N          12.25333149       12.81162920       13.28660848
N          13.76250256       10.92406902       13.14856030
N          17.25766969       14.21612152       12.30460756
C          14.95896051       11.52438621       13.05569765
C          16.21969195       10.80166295       12.97274528
C          16.58187148        9.46963437       13.19347131
C          17.96542932        9.17801543       13.02032109
C          18.88573933       10.15207087       12.64701276
C          18.57730203       11.49909011       12.56146666
C          17.22976509       11.83541983       12.60786225
C          16.57747452       13.08436068       12.41380225
N          15.24946458       12.90406733       12.72254502
C          10.94132920       13.00281477       13.17038156
C           8.93983687       11.28517533       13.24039177
C          16.64623011       15.40573593       12.34299150
C          18.67014799       17.03387328       11.96929202
C          12.75397162       17.01109250       13.07387401
C          11.47823180       17.71757970       13.26794266
C          11.24013293       19.13890535       13.49579351
C           9.89059273       19.51921610       13.64165918
C           8.85133947       18.56690937       13.36731887
C           9.08730967       17.17886347       13.19679738
C          10.42299811       16.76769145       13.16013147
C          11.03861936       15.40748483       13.05659584
N          12.39194796       15.65788956       12.94871824
N          10.34069557       14.24371570       13.06441094
C          17.39045555       16.66646541       12.29874558
C          19.04537738       18.40275251       12.03090002
C          18.13084058       19.37883994       12.54244010
C          16.84051809       18.97849608       12.94014838
C          16.43067092       17.66592219       12.70197141
C          15.13222604       17.02223400       12.86897559
N          15.24408415       15.60441317       12.60263994
N          13.97378647       17.61055184       13.02654970
H          13.07457387       14.87696832       12.82330518
H          14.66612242       13.73793988       12.84135075
H           9.57270197       20.56970177       13.68563732
H          12.09836207       19.81796854       13.80476010
H          16.14854376       19.70048443       13.37974156
H          18.40806774       20.41906262       12.75827116
H          20.05671563       18.62622189       11.71078279
H          19.37638779       16.32041331       11.66021413
H          19.33316469       12.25298117       12.37611982
H          19.99021319        9.92662175       12.69506795
H          18.29488166        8.17202799       13.08789956
H          15.84621769        8.77871091       13.64272645
H          11.68938476        8.51350563       13.58023620
H           9.29895111        7.99246896       13.88875380
H           7.52433605        9.66552949       13.29777216
H           8.23175947       12.10872318       13.14353846
H           8.29277394       16.46474938       12.95799266
H           7.80737714       18.93303266       13.36966017
C          13.31308932       14.04770395       22.05253768
C          14.64127319       13.95496123       22.37016670
C          15.47679699       15.08387236       22.27708821
C          14.93518254       16.29221983       21.85729071
C          13.54544742       16.41091248       21.62743370
C          12.72984326       15.27121070       21.67498330
C          12.83616347       12.82896040       21.45289748
C          13.94223288       11.91827615       21.42167710
C          15.05018387       12.62239366       22.01354517
C          16.34479177       12.43400855       21.42098991
C          16.82903873       14.93477738       21.66600344
C          15.92448050       17.02690268       20.98176740
C          15.45678763       17.76032576       19.83382185
C          14.01576853       17.87433800       19.59581073
C          13.07517239       17.20998022       20.38932522
C          11.98059725       16.47027047       19.79881047
C          11.73298349       15.31353504       20.64029909
C          11.26185136       14.16338666       20.04555585
C          11.82791814       12.93892218       20.46457687
C          14.08910560       11.07335043       20.28604006
C          13.06484927       11.11623007       19.24402915
C          12.00702470       12.05583542       19.27770989
C          11.51113698       12.77965728       18.14326445
C          11.09675060       14.09202716       18.58739321
C          11.30378792       15.25528275       17.76365384
C          11.79014319       16.39898363       18.39339338
C          12.70612259       17.20281144       17.45835427
C          13.79741813       17.79505722       18.10060037
C          17.02508113       16.11649718       20.81141442
C          16.43379684       15.92446502       16.19208831
C          17.33734902       15.96085097       17.22394523
C          17.93715588       14.58423821       17.72028011
C          17.52899781       13.42510798       17.06125567
C          16.52988118       13.43452099       15.98547161
C          14.55390463       14.75889251       15.36859908
C          14.13525560       16.07410874       15.75836725
C          15.32586076       16.85124975       16.30659201
C          15.15545682       17.67802513       17.45482572
C          16.13170214       17.58556329       18.55071503
C          17.22673550       16.72631118       18.44120997
C          18.12008225       14.62292976       19.11751536
C          17.87588202       13.53428834       19.93822128
C          17.47539015       12.28800965       19.31658127
C          17.26926570       12.22686268       17.95357802
C          16.04083489       11.52439234       17.41886941
C          15.62977854       12.28811569       16.27116812
C          14.23996848       12.34876270       15.92541430
C          13.69883476       13.63255422       15.50897324
C          12.85748758       16.27399229       16.35710695
C          11.99288560       15.10278970       16.55901362
C          12.41913957       13.80444639       16.13131019
C          12.18376438       12.67909638       16.93758092
C          13.27401530       11.77157385       16.86475412
C          13.75479432       10.97972060       17.93442603
C          15.18979720       10.87671168       18.26734141
C          15.38486969       10.92237308       19.68688388
C          16.44606452       11.63824188       20.21734196
C          17.65502357       15.92977092       19.59756514
C          17.26413481       13.61266571       21.23486470
C          15.93862679       14.68379070       15.60812234
176
MD Time 351.40
C          10.78536058       13.13538431       10.17096868
C           8.94950845       11.59405488       10.26602342
C           9.88243978       10.54245143       10.16709051
C          11.26844258       10.73459057       10.05673228
C          11.71694104       12.02334408       10.09375982
C          13.04254712       12.64696647       10.00770828
N          12.96688690       14.08235945       10.05402865
N          14.18476465       11.98273728        9.84010966
N          17.66376073       15.26791464        9.13748534
C          15.36854144       12.54248395        9.61158874
C          16.62011924       11.85652722        9.38670731
C          16.96532053       10.50219936        9.33544924
C          18.32785487       10.23550711        9.21254892
C          19.35516042       11.24087329        8.90915975
C          19.00472871       12.60468442        8.87139274
C          17.61465359       12.83183691        9.14981121
C          16.99456390       14.14085165        9.26009413
N          15.65891861       13.91835002        9.53432715
C          11.60273113       14.34980060       10.08130095
C           9.41345098       12.91107509       10.25517322
C          17.12357254       16.50224830        9.26428421
C          19.23658560       18.02485741        8.62289532
C          13.47408261       18.40467358       10.06529686
C          12.15481065       19.12882422       10.24011105
C          11.80329649       20.46405273       10.20645295
C          10.45244080       20.77771716       10.17944010
C           9.45948433       19.86686897       10.15994400
C           9.72305541       18.47616336       10.23698762
C          11.09750529       18.14265282       10.19287564
C          11.72569950       16.83450241       10.15578006
N          13.12077979       17.01120940        9.98559082
N          11.10103428       15.62826217       10.18928509
C          17.93528273       17.75712533        9.03487568
C          19.69450989       19.32639169        8.74452443
C          18.87047119       20.46689964        9.14291477
C          17.50485634       20.18201539        9.49865357
C          17.07895744       18.84196515        9.42971360
C          15.75060483       18.19378130        9.68632187
N          15.81793129       16.81517881        9.59096268
N          14.65512020       18.92497229        9.91482695
H          13.81919811       16.25887924        9.98010912
H          14.91709126       14.49049690        9.85800802
H          10.25526496       21.85709749       10.07801914
H          12.56994843       21.26199849       10.11140941
H          16.81144624       20.93942826        9.85060185
H          19.34498589       21.46760413        9.17092275
H          20.67435501       19.60023837        8.33863970
H          20.01390214       17.32156474        8.21307759
H          19.65672826       13.35679266        8.50995276
H          20.44522244       10.94492457        8.81099296
H          18.55211534        9.17262707        9.26034888
H          16.22804787        9.73386682        9.54033155
H          11.97938490        9.87167697        9.97987172
H           9.47646447        9.55774231       10.29840365
H           7.90848237       11.34091285       10.31052273
H           8.75569767       13.85782954       10.43456811
H           8.94418830       17.67585376       10.14724412
H           8.41198286       20.15657480       10.14621500
C          10.23876422       11.65747350       13.19318953
C           8.55670397        9.93106081       13.44295851
C           9.59783938        8.95692202       13.58875269
C          10.93047589        9.31631789       13.52009793
C          11.29832078       10.67726770       13.31559266
C          12.52617280       11.43385846       13.26146258
N          12.25288581       12.81327919       13.28634514
N          13.76188769       10.92328706       13.14820013
N          17.25930087       14.21685782       12.30426198
C          14.95763928       11.52513055       13.05645884
C          16.22049811       10.80324292       12.97208462
C          16.58011311        9.47285602       13.19463663
C          17.96754093        9.17884011       13.01753140
C          18.88683523       10.14933795       12.64991713
C          18.57436180       11.49743510       12.56128177
C          17.22726597       11.83291179       12.60728346
C          16.58066612       13.08437149       12.41109107
N          15.24934202       12.90495052       12.72142201
C          10.94124084       13.00634650       13.16618584
C           8.94048566       11.28490371       13.24213387
C          16.64841803       15.40867755       12.34179576
C          18.67092727       17.03076623       11.97087350
C          12.75656198       17.01190155       13.07315129
C          11.47880176       17.71736202       13.26776761
C          11.24023051       19.13822427       13.49372311
C           9.89197826       19.52103051       13.64540149
C           8.85112065       18.56476254       13.36706949
C           9.08714371       17.18029660       13.19315056
C          10.42688548       16.76878556       13.16426979
C          11.03583266       15.40754190       13.05378682
N          12.39174985       15.65630110       12.94910527
N          10.33809610       14.24487036       13.06205008
C          17.38813996       16.66362563       12.30222262
C          19.04431914       18.40270691       12.03246348
C          18.13105961       19.37966738       12.54421093
C          16.83695849       18.97873217       12.94063822
C          16.43167333       17.66527295       12.70427430
C          15.13726516       17.02297899       12.87242807
N          15.24645566       15.60469393       12.60137728
N          13.97331109       17.61421308       13.02618628
H          13.06935259       14.88023713       12.82739770
H          14.66680749       13.74057653       12.85473842
H           9.57461388       20.56984166       13.68926916
H          12.08466260       19.81694164       13.81037438
H          16.14570107       19.70155512       13.38267956
H          18.40251244       20.42082410       12.75801490
H          20.05756178       18.63548604       11.71386172
H          19.38307842       16.32320287       11.65991340
H          19.33030292       12.24826608       12.36672668
H          19.99153373        9.93225185       12.70575778
H          18.28571802        8.17498745       13.09269746
H          15.84710747        8.78084199       13.63968369
H          11.68472842        8.50882882       13.58015568
H           9.29802891        7.99145685       13.88437394
H           7.52133979        9.66717417       13.29012792
H           8.23508654       12.10390257       13.14143599
H           8.29488299       16.46160129       12.95764967
H           7.81180285       18.93756493       13.37200855
C          13.31181317       14.04410097       22.05085808
C          14.64167079       13.95325345       22.36954868
C          15.47846937       15.08051456       22.28204134
C          14.93739461       16.29397965       21.86035950
C          13.54562857       16.41372087       21.62919641
C          12.73104476       15.26945660       21.67457280
C          12.83217455       12.82809858       21.45292248
C          13.94274335       11.91599293       21.41899256
C          15.04753992       12.62244848       22.01548187
C          16.34646882       12.43178087       21.41964418
C          16.82860607       14.93550238       21.66580066
C          15.92702259       17.03159352       20.98474017
C          15.45416959       17.76163953       19.83497719
C          14.01565390       17.87581983       19.59509309
C          13.07615740       17.21313193       20.39308759
C          11.98063163       16.46929416       19.80210278
C          11.73294170       15.31155325       20.64034712
C          11.26235084       14.16330971       20.04442110
C          11.83114705       12.93740851       20.46293489
C          14.08496615       11.07417815       20.28768658
C          13.06785692       11.11412220       19.24318155
C          12.01056565       12.05332747       19.27762695
C          11.51508486       12.77934136       18.14279734
C          11.09522747       14.09361275       18.58231076
C          11.30930339       15.25593816       17.76615639
C          11.78904246       16.39986913       18.39233314
C          12.70293095       17.20110509       17.45844522
C          13.79586036       17.79541362       18.09799238
C          17.02349929       16.11634461       20.81270312
C          16.43464054       15.92429045       16.19380826
C          17.33932763       15.95963069       17.22632737
C          17.93782161       14.58219584       17.71893176
C          17.53192944       13.42767886       17.06002258
C          16.53128709       13.43766000       15.98787030
C          14.55708082       14.76256087       15.37147174
C          14.13395539       16.07550036       15.76341810
C          15.32916924       16.85091819       16.30677466
C          15.15467207       17.67811749       17.45393486
C          16.12839839       17.58492951       18.54977990
C          17.22556826       16.72899272       18.44164677
C          18.12006899       14.62107861       19.11420271
C          17.87394352       13.53299448       19.94031669
C          17.47365141       12.28840669       19.31828248
C          17.27105623       12.22689702       17.95439166
C          16.03904982       11.52558004       17.41901503
C          15.62839857       12.29356845       16.27396986
C          14.23900857       12.34827593       15.93004059
C          13.69699709       13.63478941       15.51025953
C          12.85991122       16.27445149       16.35375465
C          11.99379952       15.10363162       16.55961448
C          12.41972359       13.80333250       16.13749012
C          12.18286025       12.67796291       16.93728752
C          13.27528896       11.77294161       16.86241058
C          13.75681705       10.98072952       17.93392887
C          15.18912195       10.87709237       18.26592816
C          15.38328285       10.92296293       19.68682218
C          16.44925763       11.63595169       20.21650067
C          17.65185609       15.92750695       19.60280695
C          17.26462130       13.60763104       21.23422212
C          15.93719442       14.68634243       15.60936184
176
MD Time 372.07
C          10.78731423       13.13840227       10.16868392
C           8.94972090       11.59040187       10.26211919
C           9.87960632       10.54473289       10.16570320
C          11.27293405       10.73272336       10.05885266
C          11.72049142       12.02454255       10.09630358
C          13.04569568       12.64667482       10.00955664
N          12.96992983       14.08443293       10.05338567
N          14.18692788       11.98180009        9.84150250
N          17.66093229       15.26869087        9.13598253
C          15.36981352       12.54233044        9.60930439
C          16.61863668       11.85728684        9.37926659
C          16.96373062       10.50016501        9.33370038
C          18.32748396       10.23684404        9.21216140
C          19.35356965       11.24086338        8.90995368
C          19.00475080       12.60132300        8.86434634
C          17.61265726       12.83258725        9.14812984
C          16.99702501       14.14304794        9.25753734
N          15.65978761       13.92050318        9.53290903
C          11.59854539       14.35249711       10.07778760
C           9.41303795       12.91206820       10.25384167
C          17.12422402       16.50243039        9.26147224
C          19.23591668       18.02687071        8.62063737
C          13.47332953       18.40380894       10.06590666
C          12.15527039       19.12661336       10.24125286
C          11.80156620       20.46190680       10.20979384
C          10.45154608       20.78109384       10.17872917
C           9.45830180       19.86501950       10.16070451
C           9.72136106       18.48086745       10.23660520
C          11.09914449       18.14226552       10.19375169
C          11.72554706       16.83195521       10.15522254
N          13.12245636       17.01298029        9.98685681
N          11.09917527       15.62976739       10.19058990
C          17.93576954       17.75758399        9.03264359
C          19.69436804       19.32468803        8.74830994
C          18.87386879       20.46813999        9.14085491
C          17.50481233       20.18423816        9.49656135
C          17.08231880       18.84254237        9.42918388
C          15.75133771       18.19375385        9.68876383
N          15.81677408       16.81563486        9.58768632
N          14.65538227       18.92608750        9.91868800
H          13.81890440       16.25805572        9.97185764
H          14.90284914       14.49820867        9.85382452
H          10.26136413       21.86290047       10.09279782
H          12.57171595       21.25195176       10.11407438
H          16.81300937       20.93662188        9.85750046
H          19.34242086       21.46928771        9.16488415
H          20.66515271       19.59416603        8.32727651
H          20.00736978       17.32688409        8.21514532
H          19.65121734       13.36834879        8.50597587
H          20.43392163       10.94411583        8.80872995
H          18.55103285        9.16886502        9.26257917
H          16.22012098        9.74277248        9.54110360
H          11.97545323        9.87323766        9.96848716
H           9.48297514        9.55576621       10.29961606
H           7.90720297       11.33650087       10.30150047
H           8.75904743       13.84533514       10.43101360
H           8.94554267       17.68651690       10.14842812
H           8.42242561       20.15548909       10.15149959
C          10.24235277       11.65570400       13.18919094
C           8.55515082        9.93207359       13.44084369
C           9.59531471        8.95586432       13.58584787
C          10.92840248        9.31283491       13.51957692
C          11.29706849       10.67739067       13.31770473
C          12.52634218       11.43156473       13.26150778
N          12.25278041       12.81489738       13.28596540
N          13.76131888       10.92244634       13.14797613
N          17.26097392       14.21772030       12.30375172
C          14.95615073       11.52595622       13.05701439
C          16.22143757       10.80525369       12.97131082
C          16.57850727        9.47616935       13.19587238
C          17.96927724        9.17970194       13.01466930
C          18.88843352       10.14662590       12.65305970
C          18.57128984       11.49582113       12.56094628
C          17.22462973       11.82996814       12.60676249
C          16.58390009       13.08427557       12.40868029
N          15.24909776       12.90570971       12.72035111
C          10.94078582       13.00989668       13.16195688
C           8.94074533       11.28456649       13.24392367
C          16.65041949       15.41162244       12.34070376
C          18.67172153       17.02798193       11.97252284
C          12.75914571       17.01281870       13.07247509
C          11.47949066       17.71744750       13.26761500
C          11.24039192       19.13730211       13.49188473
C           9.89330276       19.52270679       13.64885631
C           8.85087927       18.56261093       13.36693134
C           9.08702091       17.18187760       13.18942407
C          10.43082612       16.76974122       13.16846464
C          11.03276159       15.40772216       13.05095048
N          12.39182109       15.65453482       12.94951647
N          10.33558132       14.24602268       13.05974087
C          17.38542748       16.66089967       12.30586353
C          19.04312614       18.40263471       12.03415927
C          18.13135069       19.38035235       12.54604786
C          16.83337573       18.97902869       12.94104450
C          16.43277430       17.66460481       12.70665249
C          15.14243281       17.02320694       12.87565288
N          15.24913840       15.60516225       12.60014855
N          13.97247270       17.61798083       13.02593992
H          13.06327150       14.88491256       12.83174129
H          14.66683199       13.74281839       12.86769350
H           9.57726065       20.56987233       13.69395405
H          12.06915575       19.81433239       13.81401262
H          16.14265354       19.70262108       13.38538269
H          18.39765990       20.42225717       12.75689025
H          20.05862787       18.64576084       11.71702514
H          19.39224977       16.32315940       11.65831454
H          19.32785241       12.24414608       12.35714515
H          19.99046528        9.93726185       12.71549937
H          18.27765970        8.17464058       13.09839202
H          15.84865429        8.78286348       13.63551464
H          11.67996273        8.50537972       13.58040495
H           9.29660037        7.98643128       13.88005779
H           7.51713383        9.66804730       13.28355318
H           8.23684894       12.09889727       13.13921819
H           8.29693038       16.45869472       12.95799581
H           7.81690260       18.94172426       13.37422182
C          13.30982458       14.04068633       22.04918022
C          14.64248479       13.95153171       22.36919354
C          15.48050764       15.07682330       22.28700315
C          14.93949943       16.29630054       21.86327145
C          13.54595011       16.41694772       21.63056915
C          12.73219655       15.26750224       21.67434301
C          12.82790443       12.82731375       21.45295618
C          13.94314634       11.91357779       21.41617304
C          15.04546832       12.62229037       22.01721224
C          16.34807335       12.42978589       21.41831392
C          16.82807385       14.93590256       21.66558528
C          15.92924227       17.03631087       20.98758046
C          15.45156183       17.76277674       19.83635767
C          14.01539844       17.87721202       19.59404791
C          13.07735444       17.21619374       20.39711918
C          11.98058774       16.46840709       19.80528972
C          11.73284031       15.30979284       20.64028623
C          11.26280040       14.16319591       20.04305526
C          11.83464625       12.93532206       20.46127256
C          14.08068350       11.07506714       20.28951086
C          13.07086280       11.11213221       19.24209231
C          12.01405122       12.05072724       19.27792991
C          11.51896860       12.77913225       18.14240260
C          11.09357458       14.09533688       18.57726476
C          11.31463524       15.25608259       17.76903465
C          11.78807904       16.40150988       18.39160765
C          12.69952216       17.19902427       17.45899284
C          13.79467112       17.79588460       18.09529904
C          17.02201414       16.11597678       20.81423920
C          16.43536600       15.92430213       16.19552151
C          17.34184907       15.95774442       17.22907481
C          17.93834451       14.58050908       17.71705446
C          17.53481706       13.42996590       17.05902342
C          16.53250898       13.44082841       15.99047428
C          14.55999486       14.76617891       15.37428600
C          14.13252902       16.07726312       15.76871885
C          15.33209668       16.85046931       16.30693556
C          15.15372335       17.67809608       17.45314816
C          16.12498161       17.58444006       18.54885967
C          17.22435457       16.73167739       18.44206289
C          18.12000254       14.61953764       19.11120319
C          17.87211547       13.53140928       19.94237763
C          17.47166566       12.28865143       19.32015626
C          17.27268623       12.22699253       17.95483782
C          16.03791613       11.52707300       17.41904752
C          15.62680240       12.29909259       16.27648394
C          14.23830256       12.34791367       15.93482347
C          13.69538128       13.63718072       15.51149655
C          12.86256795       16.27484276       16.35016221
C          11.99494426       15.10431287       16.55972618
C          12.42024783       13.80270647       16.14352945
C          12.18173197       12.67656195       16.93713237
C          13.27696490       11.77399503       16.85991031
C          13.75869053       10.98182239       17.93365481
C          15.18817838       10.87740529       18.26423791
C          15.38163041       10.92354079       19.68683534
C          16.45285650       11.63369337       20.21562854
C          17.64883418       15.92536656       19.60771501
C          17.26479376       13.60297291       21.23378557
C          15.93626364       14.68852608       15.61067357
176
MD Time 392.74
C          10.78940425       13.14124655       10.16631330
C           8.95010311       11.58679028       10.25812737
C           9.87678193       10.54698537       10.16432045
C          11.27740074       10.73055372       10.06101295
C          11.72411184       12.02625214       10.09880406
C          13.04886850       12.64662382       10.01142487
N          12.97285799       14.08621935       10.05269077
N          14.18912529       11.98072482        9.84288204
N          17.65815216       15.26973661        9.13442432
C          15.37115877       12.54222490        9.60697925
C          16.61719356       11.85800088        9.37172995
C          16.96224044       10.49830496        9.33206142
C          18.32728004       10.23815158        9.21162359
C          19.35194833       11.24069011        8.91087534
C          19.00430138       12.59752601        8.85731033
C          17.61090808       12.83360012        9.14636683
C          16.99944151       14.14509669        9.25499702
N          15.66057931       13.92243445        9.53152200
C          11.59448727       14.35564786       10.07445217
C           9.41244686       12.91348242       10.25258530
C          17.12504560       16.50270147        9.25848475
C          19.23546979       18.02874075        8.61835894
C          13.47201206       18.40275107       10.06652910
C          12.15584006       19.12407513       10.24223544
C          11.80009042       20.45983890       10.21311442
C          10.45092500       20.78508008       10.17796618
C           9.45673386       19.86270327       10.16157023
C           9.71986731       18.48555192       10.23605241
C          11.10080865       18.14180255       10.19478790
C          11.72551252       16.82896174       10.15452061
N          13.12400746       17.01497738        9.98824458
N          11.09721611       15.63132408       10.19182339
C          17.93604314       17.75797394        9.03054700
C          19.69414568       19.32357954        8.75201040
C          18.87718066       20.46896862        9.13881702
C          17.50503435       20.18641744        9.49439134
C          17.08560597       18.84294079        9.42861166
C          15.75234996       18.19381641        9.69116346
N          15.81563141       16.81613741        9.58440065
N          14.65574241       18.92735430        9.92260067
H          13.81854375       16.25758397        9.96317556
H          14.88743688       14.50913136        9.84945876
H          10.26642497       21.86812406       10.10787737
H          12.57278059       21.24100098       10.11729265
H          16.81414873       20.93460117        9.86434813
H          19.33879765       21.47017171        9.15896234
H          20.65672365       19.58761907        8.31639287
H          19.99830765       17.33188728        8.21823069
H          19.64710854       13.38199720        8.50222861
H          20.42008428       10.94335749        8.80625777
H          18.55164230        9.16509898        9.26472827
H          16.21181856        9.75079264        9.54175773
H          11.97044241        9.87608595        9.95747078
H           9.48928765        9.55179961       10.30026141
H           7.90423569       11.33216166       10.29294390
H           8.76406608       13.82903207       10.42626634
H           8.94812941       17.69867425       10.15021125
H           8.43146886       20.15539832       10.15654120
C          10.24647634       11.65405723       13.18529643
C           8.55388848        9.93318850       13.43856967
C           9.59244211        8.95514889       13.58294338
C          10.92664194        9.30943396       13.51898284
C          11.29549868       10.67742846       13.31980850
C          12.52675619       11.42942950       13.26154097
N          12.25301510       12.81647400       13.28546793
N          13.76080061       10.92154707       13.14789074
N          17.26268676       14.21870779       12.30307547
C          14.95451301       11.52686975       13.05735711
C          16.22247829       10.80768175       12.97043351
C          16.57709971        9.47957010       13.19715493
C          17.97058550        9.18058559       13.01176376
C          18.89052488       10.14398429       12.65642918
C          18.56810464       11.49423351       12.56045486
C          17.22188711       11.82661521       12.60629018
C          16.58713933       13.08408212       12.40657997
N          15.24872834       12.90635605       12.71934002
C          10.93998114       13.01342342       13.15770608
C           8.94065524       11.28415095       13.24574921
C          16.65221722       15.41451429       12.33972241
C          18.67253641       17.02551726       11.97423360
C          12.76169920       17.01382906       13.07184795
C          11.48031566       17.71783634       13.26748537
C          11.24056272       19.13612759       13.49028347
C           9.89455813       19.52419638       13.65200312
C           8.85064055       18.56049549       13.36691230
C           9.08696759       17.18358147       13.18563434
C          10.43476126       16.77055484       13.17269131
C          11.02944547       15.40804166       13.04810156
N          12.39211772       15.65264707       12.94995785
N          10.33315075       14.24717110       13.05748290
C          17.38239838       16.65832672       12.30964376
C          19.04182222       18.40253970       12.03598121
C          18.13167637       19.38087944       12.54795168
C          16.82980502       18.97939816       12.94136718
C          16.43396801       17.66392800       12.70910682
C          15.14764693       17.02292753       12.87864522
N          15.25212227       15.60582803       12.59896256
N          13.97132426       17.62182500       13.02580782
H          13.05689787       14.89033176       12.83619934
H          14.66639335       13.74446698       12.88006603
H           9.58058459       20.56992279       13.69970602
H          12.05256487       19.81054132       13.81578569
H          16.13944240       19.70359764       13.38778330
H          18.39359727       20.42342798       12.75491420
H          20.05961708       18.65683567       11.72033587
H          19.40349793       16.32055171       11.65557176
H          19.32576848       12.24064221       12.34744162
H          19.98724391        9.94152403       12.72424147
H          18.27082439        8.17087350       13.10495631
H          15.85067590        8.78463883       13.63034680
H          11.67519945        8.50309247       13.58098927
H           9.29469922        7.97766416       13.87571683
H           7.51198091        9.66822324       13.27810890
H           8.23684259       12.09400698       13.13687276
H           8.29893891       16.45609002       12.95899941
H           7.82241508       18.94548542       13.37627204
C          13.30714878       14.03749412       22.04752016
C          14.64368322       13.94979310       22.36910188
C          15.48289938       15.07285893       22.29194047
C          14.94148850       16.29915317       21.86603141
C          13.54642247       16.42056264       21.63155887
C          12.73330051       15.26536367       21.67429119
C          12.82340518       12.82657961       21.45300890
C          13.94341173       11.91107978       21.41326447
C          15.04400574       12.62189033       22.01870836
C          16.34957856       12.42802939       21.41702154
C          16.82744133       14.93594486       21.66537068
C          15.93111808       17.04103410       20.99028911
C          15.44898401       17.76373483       19.83795127
C          14.01499327       17.87850963       19.59268476
C          13.07874140       17.21914627       20.40139652
C          11.98047339       16.46763138       19.80834257
C          11.73268930       15.30826579       20.64012387
C          11.26320039       14.16301977       20.04144558
C          11.83837383       12.93268973       20.45957086
C          14.07631961       11.07598565       20.29147457
C          13.07383517       11.11027225       19.24076066
C          12.01746203       12.04805384       19.27860206
C          11.52276611       12.77903172       18.14209822
C          11.09180824       14.09716138       18.57231436
C          11.31976325       15.25571640       17.77224734
C          11.78726435       16.40391121       18.39125842
C          12.69593035       17.19659095       17.45998825
C          13.79383974       17.79646510       18.09253593
C          17.02062470       16.11539666       20.81603707
C          16.43598799       15.92450417       16.19723413
C          17.34489042       15.95520862       17.23216743
C          17.93873515       14.57922239       17.71467514
C          17.53764081       13.43192331       17.05825378
C          16.53352806       13.44401884       15.99326704
C          14.56258191       14.76971637       15.37703467
C          14.13103839       16.07938166       15.77422537
C          15.33461847       16.84992079       16.30708512
C          15.15261407       17.67796021       17.45246438
C          16.12146611       17.58409883       18.54796753
C          17.22310606       16.73433239       18.44247365
C          18.11987216       14.61830339       19.10857680
C          17.87041863       13.52955423       19.94436312
C          17.46944665       12.28873496       19.32217119
C          17.27414696       12.22714896       17.95491513
C          16.03745581       11.52888363       17.41896096
C          15.62500908       12.30466252       16.27871648
C          14.23786011       12.34772032       15.93971620
C          13.69401314       13.63972007       15.51268984
C          12.86539623       16.27517060       16.34637968
C          11.99631977       15.10482814       16.55934934
C          12.42071901       13.80259851       16.14938575
C          12.18039314       12.67488061       16.93711317
C          13.27902429       11.77470807       16.85729394
C          13.76040232       10.98299550       17.93359060
C          15.18697217       10.87764896       18.26229658
C          15.37992628       10.92411001       19.68692488
C          16.45681550       11.63145456       20.21472864
C          17.64598005       15.92335629       19.61221401
C          17.26464506       13.59873651       21.23357687
C          15.93587119       14.69033093       15.61206374
176
MD Time 413.41
C          10.79159380       13.14389052       10.16386830
C           8.95061713       11.58328002       10.25405886
C           9.87404464       10.54914704       10.16294323
C          11.28176702       10.72816850       10.06320659
C          11.72778168       12.02843546       10.10125355
C          13.05205428       12.64683489       10.01331025
N          12.97564648       14.08771795       10.05194250
N          14.19135757       11.97951462        9.84424451
N          17.65545086       15.27106504        9.13280572
C          15.37256350       12.54218941        9.60461784
C          16.61580439       11.85865375        9.36411884
C          16.96085928       10.49666070        9.33052698
C          18.32722614       10.23937897        9.21094644
C          19.35026019       11.24035631        8.91191229
C          19.00338996       12.59339208        8.85029016
C          17.60943782       12.83485884        9.14450585
C          17.00177199       14.14696714        9.25248442
N          15.66120418       13.92420328        9.53020098
C          11.59061393       14.35922897       10.07130527
C           9.41173822       12.91522226       10.25138699
C          17.12601908       16.50307294        9.25532858
C          19.23519882       18.03047278        8.61609075
C          13.47015883       18.40151418       10.06716530
C          12.15650215       19.12122227       10.24305907
C          11.79885481       20.45783876       10.21640408
C          10.45057688       20.78961930       10.17717057
C           9.45487519       19.85999217       10.16253809
C           9.71863941       18.49019131       10.23533627
C          11.10246932       18.14125984       10.19598039
C          11.72559761       16.82557477       10.15368092
N          13.12542427       17.01716971        9.98974572
N          11.09515718       15.63291921       10.19297670
C          17.93610439       17.75829432        9.02858968
C          19.69384326       19.32307962        8.75560202
C          18.88036452       20.46937418        9.13681447
C          17.50554268       20.18853465        9.49214965
C          17.08879259       18.84316621        9.42800441
C          15.75363315       18.19397676        9.69351285
N          15.81451430       16.81668868        9.58111161
N          14.65619831       18.92876155        9.92655861
H          13.81811202       16.25757693        9.95412755
H          14.87210203       14.52215699        9.84443732
H          10.27035406       21.87278137       10.12313555
H          12.57334038       21.22948454       10.12105772
H          16.81484073       20.93342951        9.87109389
H          19.33428895       21.47041839        9.15316949
H          20.64936420       19.58072952        8.30600429
H          19.98722897       17.33615017        8.22204004
H          19.64398486       13.39697053        8.49895860
H          20.40449935       10.94245365        8.80353815
H          18.55388304        9.16175023        9.26677896
H          16.20314014        9.75770702        9.54231048
H          11.96477553        9.87974161        9.94688918
H           9.49536942        9.54609060       10.30028180
H           7.89985696       11.32798912       10.28487127
H           8.77015898       13.80982871       10.42047704
H           8.95152619       17.71184097       10.15254583
H           8.43820565       20.15650249       10.16131862
C          10.25106140       11.65254859       13.18152085
C           8.55288779        9.93438667       13.43613902
C           9.58922313        8.95472470       13.58005705
C          10.92517852        9.30614971       13.51831646
C          11.29363593       10.67735726       13.32189380
C          12.52739875       11.42747840       13.26156550
N          12.25358456       12.81800084       13.28485160
N          13.76033740       10.92058959       13.14794569
N          17.26443598       14.21981602       12.30223334
C          14.95274636       11.52787619       13.05748079
C          16.22358573       10.81050561       12.96946435
C          16.57593378        9.48305667       13.19845895
C          17.97142951        9.18144715       13.00884630
C          18.89308105       10.14146248       12.66001218
C          18.56483194       11.49265870       12.55980230
C          17.21907003       11.82288655       12.60585651
C          16.59034833       13.08380242       12.40479792
N          15.24823121       12.90690044       12.71839644
C          10.93885095       13.01688564       13.15344538
C           8.94026001       11.28365344       13.24759690
C          16.65379677       15.41729643       12.33885703
C          18.67339477       17.02334675       11.97599090
C          12.76419850       17.01491681       13.07127224
C          11.48129116       17.71852249       13.26737874
C          11.24067715       19.13468184       13.48891731
C           9.89573829       19.52545256       13.65482404
C           8.85043142       18.55845533       13.36701909
C           9.08701081       17.18538157       13.18179890
C          10.43863270       16.77122651       13.17692463
C          11.02592657       15.40851344       13.04525514
N          12.39258387       15.65070556       12.95043654
N          10.33080364       14.24831423       13.05527554
C          17.37914017       16.65594586       12.31353687
C          19.04043485       18.40242686       12.03792170
C          18.13199882       19.38123460       12.54992263
C          16.82628117       18.97985292       12.94160687
C          16.43524610       17.66325325       12.71163810
C          15.15282325       17.02215753       12.88140227
N          15.25539306       15.60669872       12.59782808
N          13.96992316       17.62571420       13.02578637
H          13.05091363       14.89569952       12.84062107
H          14.66567916       13.74534423       12.89170597
H           9.58451990       20.57011733       13.70652708
H          12.03575467       19.80610021       13.81588237
H          16.13610635       19.70440731       13.38981742
H          18.39040028       20.42441057       12.75211386
H          20.06021862       18.66848077       11.72385854
H          19.41616952       16.31589123       11.65194903
H          19.32395302       12.23772842       12.33769426
H          19.98228522        9.94489723       12.73195417
H          18.26520260        8.16396246       13.11232371
H          15.85296350        8.78601766       13.62432542
H          11.67059431        8.50184120       13.58191357
H           9.29245251        7.96578857       13.87116837
H           7.50624753        9.66781059       13.27386170
H           8.23494437       12.08946533       13.13439616
H           8.30092718       16.45384256       12.96062205
H           7.82804011       18.94884360       13.37813520
C          13.30382526       14.03455271       22.04589760
C          14.64522438       13.94803239       22.36927083
C          15.48562746       15.06868720       22.29682100
C          14.94335670       16.30250196       21.86864669
C          13.54705279       16.42453062       21.63217623
C          12.73435646       15.26306390       21.67441105
C          12.81873216       12.82586873       21.45309272
C          13.94351186       11.90855083       21.41031624
C          15.04317762       12.62122287       22.01994544
C          16.35096229       12.42651473       21.41578723
C          16.82670851       14.93560228       21.66517137
C          15.93263405       17.04574051       20.99286951
C          15.44645319       17.76451406       19.83974069
C          14.01443268       17.87970843       19.59101664
C          13.08029411       17.22197194       20.40589214
C          11.98029825       16.46699038       19.81123716
C          11.73249731       15.30697862       20.63986777
C          11.26355379       14.16275583       20.03958406
C          11.84228250       12.92954614       20.45780902
C          14.07193630       11.07690031       20.29353506
C          13.07674206       11.10855453       19.23918963
C          12.02077895       12.04532587       19.27962129
C          11.52645668       12.77903906       18.14190305
C          11.08994509       14.09904531       18.56751847
C          11.32467502       15.25485276       17.77574792
C          11.78660427       16.40706402       18.39131719
C          12.69219510       17.19383054       17.46141908
C          13.79334893       17.79714794       18.08971845
C          17.01932990       16.11461082       20.81810627
C          16.43652506       15.92489699       16.19895508
C          17.34842026       15.95204652       17.23557763
C          17.93900648       14.57837519       17.71183027
C          17.54038006       13.43350910       17.05770599
C          16.53432872       13.44722196       15.99623221
C          14.56478585       14.77314658       15.37971126
C          14.12955064       16.08183519       15.77988925
C          15.33671408       16.84929105       16.30723500
C          15.15134922       17.67770980       17.45188124
C          16.11786855       17.58390764       18.54711643
C          17.22183426       16.73692596       18.44289296
C          18.11966787       14.61736822       19.10637457
C          17.86887245       13.52745499       19.94623483
C          17.46701080       12.28864982       19.32429053
C          17.27543172       12.22736579       17.95462861
C          16.03767985       11.53101905       17.41875149
C          15.62304288       12.31025146       16.28067699
C          14.23768888       12.34773911       15.94467050
C          13.69291362       13.64239775       15.51384579
C          12.86832673       16.27544162       16.34246332
C          11.99792029       15.10517684       16.55849474
C          12.42114538       13.80302754       16.15501904
C          12.17886177       12.67291004       16.93722309
C          13.28144063       11.77505897       16.85460405
C          13.76194255       10.98424457       17.93372019
C          15.18551620       10.87782537       18.26013160
C          15.37818595       10.92467479       19.68708975
C          16.46108351       11.62922056       20.21380450
C          17.64331359       15.92148245       19.61623787
C          17.26417266       13.59495916       21.23361305
C          15.93604469       14.69175352       15.61353694
176
MD Time 434.08
C          10.79384654       13.14631462       10.16136076
C           8.95121236       11.57992844       10.24992513
C           9.87146743       10.55114395       10.16157326
C          11.28595693       10.72566795       10.06542950
C          11.73148000       12.03104631       10.10364498
C          13.05524329       12.64732750       10.01520997
N          12.97827481       14.08893204       10.05113966
N          14.19362577       11.97817412        9.84558650
N          17.65285733       15.27268445        9.13112155
C          15.37401182       12.54224446        9.60222477
C          16.61448402       11.85923328        9.35645352
C          16.95959048       10.49526299        9.32909203
C          18.32730447       10.24047840        9.21014183
C          19.34845551       11.23986860        8.91305316
C          19.00203689       12.58903206        8.84328702
C          17.60827197       12.83634318        9.14253151
C          17.00397701       14.14863309        9.25000949
N          15.66158139       13.92586868        9.52897575
C          11.58697932       14.36320829       10.06835513
C           9.41099045       12.91716451       10.25022369
C          17.12712264       16.50355660        9.25201169
C          19.23504484       18.03208367        8.61386905
C          13.46780977       18.40011722       10.06781532
C          12.15723647       19.11807211       10.24372536
C          11.79783761       20.45589026       10.21965344
C          10.45049480       20.79464199       10.17636207
C           9.45281429       19.85697347       10.16360364
C           9.71774433       18.49476639       10.23446610
C          11.10410149       18.14063123       10.19732369
C          11.72580389       16.82185577       10.15271106
N          13.12669994       17.01952254        9.99135131
N          11.09299719       15.63453919       10.19404191
C          17.93595966       17.75854666        9.02677279
C          19.69346724       19.32319033        8.75905953
C          18.88337890       20.46934883        9.13485996
C          17.50634736       20.19057376        9.48984548
C          17.09185485       18.84322838        9.42737005
C          15.75517269       18.19424276        9.69580540
N          15.81343425       16.81729121        9.57782432
N          14.65674349       18.93029411        9.93055644
H          13.81759915       16.25815513        9.94477920
H          14.85801823       14.53618913        9.83834293
H          10.27307474       21.87694028       10.13845300
H          12.57365953       21.21779460       10.12535327
H          16.81513384       20.93309251        9.87765373
H          19.32908852       21.47022763        9.14751450
H          20.64330645       19.57362784        8.29614048
H          19.97476840       17.33917475        8.22622581
H          19.64135434       13.41238189        8.49644113
H          20.38812927       10.94116305        8.80051471
H          18.55767150        9.15921204        9.26871486
H          16.19415589        9.76338606        9.54276165
H          11.95894894        9.88362620        9.93677600
H           9.50122768        9.53902350       10.29960993
H           7.89446367       11.32409802       10.27729182
H           8.77650441       13.78895449       10.41385972
H           8.95521623       17.72542756       10.15537194
H           8.44191575       20.15893584       10.16582139
C          10.25602230       11.65119372       13.17787699
C           8.55211003        9.93564586       13.43355538
C           9.58566280        8.95451801       13.57721019
C          10.92398584        9.30301677       13.51757948
C          11.29151320       10.67715619       13.32395089
C          12.52824896       11.42573580       13.26158514
N          12.25447937       12.81947138       13.28411500
N          13.75993409       10.91957291       13.14814195
N          17.26621684       14.22103802       12.30122639
C          14.95087341       11.52898121       13.05738014
C          16.22472320       10.81369670       12.96841663
C          16.57504877        9.48662909       13.19975867
C          17.97178960        9.18221912       13.00595017
C          18.89605560       10.13910714       12.66379404
C          18.56150332       11.49108403       12.55898364
C          17.21621020       11.81882280       12.60545011
C          16.59349382       13.08344845       12.40334010
N          15.24760565       12.90735354       12.71752762
C          10.93742851       13.02024142       13.14918678
C           8.93960451       11.28307943       13.24945183
C          16.65514600       15.41991398       12.33811193
C          18.67432960       17.02142957       11.97777506
C          12.76662024       17.01606537       13.07075003
C          11.48242959       17.71949498       13.26729461
C          11.24066195       19.13294027       13.48777775
C           9.89683887       19.52643281       13.65730475
C           8.85027914       18.55652823       13.36725744
C           9.08717635       17.18725210       13.17793565
C          10.44238525       16.77175861       13.18114046
C          11.02225295       15.40915019       13.04242554
N          12.39315869       15.64878248       12.95095968
N          10.32853493       14.24945074       13.05311742
C          17.37574406       16.65379537       12.31751629
C          19.03899213       18.40230237       12.03997317
C          18.13228089       19.38140617       12.55196095
C          16.82283694       18.98040324       12.94176443
C          16.43659921       17.66259221       12.71424779
C          15.15787799       17.02091808       12.88392333
N          15.25893418       15.60778012       12.59675311
N          13.96832975       17.62961684       13.02587145
H          13.04602728       14.90017694       12.84485791
H          14.66485853       13.74529657       12.90246813
H           9.58899838       20.57055912       13.71440830
H          12.01967914       19.80163817       13.81455434
H          16.13268196       19.70498105       13.39142540
H          18.38812904       20.42527245       12.74852196
H          20.06013742       18.68045881       11.72765158
H          19.42945678       16.30984131       11.64778101
H          19.32226456       12.23533909       12.32798929
H          19.97617084        9.94723293       12.73863205
H          18.26067675        8.15452505       13.12038563
H          15.85529470        8.78684776       13.61760443
H          11.66634170        8.50144264       13.58318275
H           9.29004638        7.95169402       13.86617087
H           7.50034963        9.66693977       13.27087326
H           8.23112160       12.08543133       13.13179505
H           8.30289579       16.45198537       12.96281362
H           7.83345552       18.95181036       13.37979185
C          13.29990563       14.03188506       22.04433502
C          14.64706007       13.94624355       22.36969413
C          15.48867059       15.06437583       22.30161275
C          14.94510083       16.30630662       21.87112601
C          13.54784814       16.42881278       21.63243428
C          12.73536294       15.26063166       21.67469249
C          12.81394279       12.82515337       21.45322219
C          13.94342250       11.90604497       21.40738097
C          15.04299889       12.62026760       22.02090166
C          16.35220645       12.42524298       21.41462813
C          16.82587471       14.93485348       21.66500078
C          15.93377896       17.05040421       20.99532677
C          15.44398400       17.76511669       19.84170593
C          14.01371300       17.88080410       19.58906036
C          13.08198802       17.22465532       20.41057546
C          11.98007429       16.46650776       19.81395658
C          11.73227297       15.30593289       20.63952588
C          11.26386546       14.16238078       20.03746825
C          11.84632085       12.92593187       20.45596582
C          14.06759313       11.07777596       20.29564758
C          13.07955280       11.10698807       19.23738638
C          12.02398280       12.04256127       19.28096063
C          11.53002088       12.77915056       18.14183582
C          11.08800048       14.10094542       18.56293431
C          11.32936587       15.25351910       17.77948505
C          11.78609833       16.41094523       18.39180737
C          12.68835969       17.19077266       17.46326882
C          13.79317648       17.79792448       18.08686257
C          17.01812829       16.11362776       20.82045006
C          16.43699953       15.92547699       16.20069583
C          17.35239998       15.94828740       17.23927243
C          17.93917361       14.57800150       17.70856532
C          17.54301557       13.43468701       17.05736897
C          16.53489885       13.45042775       15.99935319
C          14.56656144       14.77644694       15.38231159
C          14.12813778       16.08459697       15.78565915
C          15.33836736       16.84859881       16.30739780
C          15.14993518       17.67734530       17.45139569
C          16.11420754       17.58386573       18.54631909
C          17.22054960       16.73942790       18.44333340
C          18.11938035       14.61672010       19.10463754
C          17.86749374       13.52514031       19.94795845
C          17.46437616       12.28839078       19.32647448
C          17.27653678       12.22764139       17.95399025
C          16.03858855       11.53348168       17.41841663
C          15.62093238       12.31583304       16.28237821
C          14.23779359       12.34801207       15.94963727
C          13.69209926       13.64520432       15.51497212
C          12.87128457       16.27566487       16.33847270
C          11.99973438       15.10536330       16.55718222
C          12.42153777       13.80399930       16.16039272
C          12.17715950       12.67064602       16.93744937
C          13.28418038       11.77503130       16.85188264
C          13.76330448       10.98556352       17.93402476
C          15.18383042       10.87793836       18.25777145
C          15.37642743       10.92523944       19.68732664
C          16.46560663       11.62697584       20.21286079
C          17.64084944       15.91975158       19.61973455
C          17.26337742       13.59167176       21.23390630
C          15.93679976       14.69279841       15.61509609
176
MD Time 454.76
C          10.79612558       13.14850476       10.15880182
C           8.95183174       11.57679064       10.24573665
C           9.86911681       10.55289598       10.16021298
C          11.28989767       10.72315997       10.06768002
C          11.73518404       12.03403253       10.10597215
C          13.05842798       12.64811696       10.01712121
N          12.98072629       14.08986887       10.05028075
N          14.19593003       11.97670911        9.84690534
N          17.65039828       15.27459730        9.12936628
C          15.37548605       12.54240852        9.59980484
C          16.61324680       11.85973080        9.34875209
C          16.95843141       10.49413045        9.32775203
C          18.32749647       10.24140785        9.20922205
C          19.34647471       11.23923656        8.91428796
C          19.00026760       12.58455916        8.83630034
C          17.60743002       12.83802992        9.14042917
C          17.00602114       14.15007558        9.24758071
N          15.66164894       13.92748077        9.52786634
C          11.58362818       14.36755137       10.06560867
C           9.41030179       12.91916208       10.24906776
C          17.12833328       16.50416390        9.24854205
C          19.23494114       18.03360041        8.61173341
C          13.46501234       18.39858110       10.06847934
C          12.15802061       19.11464506       10.24423695
C          11.79701119       20.45397465       10.22285490
C          10.45066577       20.80006982       10.17556007
C           9.45062141       19.85374781       10.16476166
C           9.71724840       18.49926027       10.23345235
C          11.10568309       18.13990943       10.19881133
C          11.72612816       16.81786789       10.15161970
N          13.12782749       17.02199994        9.99305173
N          11.09073710       15.63616921       10.19501134
C          17.93562048       17.75873329        9.02509493
C          19.69303080       19.32390237        8.76235588
C          18.88618517       20.46888926        9.13296513
C          17.50745032       20.19252342        9.48749012
C          17.09477053       18.84314063        9.42671675
C          15.75695094       18.19462063        9.69803651
N          15.81240188       16.81794699        9.57454264
N          14.65736798       18.93193777        9.93458996
H          13.81702110       16.25941870        9.93520022
H          14.84614985       14.55026111        9.83087313
H          10.27453164       21.88071745       10.15371837
H          12.57405529       21.20635813       10.13015531
H          16.81513068       20.93351306        9.88391891
H          19.32339985       21.46982290        9.14200288
H          20.63870325       19.56643707        8.28685307
H          19.96163650       17.34042249        8.23041025
H          19.63872457       13.42732321        8.49493608
H          20.37204519       10.93921526        8.79711548
H          18.56290805        9.15782043        9.27052216
H          16.18500884        9.76779627        9.54309247
H          11.95348785        9.88711959        9.92713421
H           9.50690176        9.53108621       10.29817112
H           7.88854556       11.32061681       10.27020703
H           8.78208871       13.76789033       10.40667452
H           8.95864531       17.73880129       10.15862558
H           8.44217678       20.16273779       10.17004757
C          10.26126326       11.65000569       13.17437652
C           8.55151180        9.93694307       13.43082226
C           9.58177174        8.95444383       13.57442473
C          10.92302898        9.30006867       13.51677394
C          11.28916776       10.67680765       13.32597113
C          12.52928446       11.42422123       13.26160346
N          12.25568574       12.82088065       13.28325653
N          13.75959463       10.91849674       13.14847996
N          17.26802512       14.22236340       12.30005665
C          14.94891685       11.53018855       13.05705105
C          16.22585236       10.81721998       12.96730524
C          16.57447757        9.49028788       13.20102963
C          17.97165988        9.18281953       13.00310934
C          18.89938585       10.13696069       12.66775972
C          18.55815499       11.48949686       12.55799420
C          17.21333908       11.81447018       12.60505872
C          16.59654559       13.08303326       12.40220946
N          15.24685348       12.90772233       12.71673959
C          10.93575050       13.02345401       13.14494128
C           8.93873329       11.28244660       13.25129761
C          16.65625582       15.42231646       12.33748939
C          18.67537758       17.01971888       11.97956507
C          12.76894108       17.01725709       13.07028308
C          11.48373964       17.72073639       13.26723208
C          11.24044267       19.13087603       13.48685132
C           9.89785585       19.52710076       13.65943506
C           8.85020865       18.55474830       13.36763172
C           9.08749046       17.18916674       13.17406201
C          10.44596755       16.77215794       13.18531564
C          11.01846960       15.40995939       13.03962675
N          12.39378243       15.64694603       12.95153340
N          10.32634179       14.25057974       13.05100639
C          17.37230340       16.65190969       12.32155557
C          19.03752039       18.40217162       12.04212853
C          18.13248753       19.38138564       12.55406671
C          16.81950365       18.98105929       12.94184142
C          16.43801498       17.66195604       12.71693792
C          15.16273337       17.01923515       12.88621000
N          15.26272555       15.60907456       12.59574522
N          13.96660372       17.63350433       13.02605866
H          13.04289823       14.90298586       12.84877883
H          14.66405908       13.74423524       12.91222777
H           9.59395659       20.57131737       13.72333033
H          12.00531330       19.79783337       13.81209148
H          16.12918715       19.70527450       13.39256318
H          18.38682568       20.42607746       12.74417812
H          20.05912600       18.69253844       11.73175838
H          19.44250512       16.30311489       11.64342796
H          19.32053260       12.23338196       12.31841680
H          19.96961774        9.94838206       12.74429336
H          18.25705409        8.14342432       13.12899461
H          15.85746190        8.78699996       13.61032727
H          11.66265001        8.50168355       13.58480096
H           9.28769275        7.93641391       13.86045836
H           7.49472390        9.66575276       13.26919851
H           8.22545875       12.08194811       13.12909277
H           8.30484783       16.45055222       12.96552218
H           7.83835266       18.95440599       13.38122774
C          13.29545104       14.02950645       22.04285711
C          14.64913695       13.94441810       22.37036298
C          15.49200469       15.05999234       22.30628771
C          14.94672114       16.31052484       21.87348036
C          13.54881259       16.43336841       21.63234977
C          12.73631625       15.25810089       21.67512239
C          12.80909361       12.82440603       21.45341287
C          13.94312288       11.90361545       21.40451153
C          15.04347342       12.61900840       22.02155920
C          16.35329808       12.42421244       21.41355831
C          16.82494007       14.93368325       21.66487264
C          15.93454769       17.05499926       20.99766906
C          15.44158716       17.76554789       19.84382308
C          14.01283366       17.88179349       19.58683500
C          13.08379779       17.22718440       20.41541380
C          11.97981446       16.46620729       19.81648905
C          11.73202291       15.30512421       20.63910549
C          11.26414277       14.16187308       20.03509975
C          11.85043578       12.92189171       20.45401913
C          14.06334564       11.07857746       20.29776531
C          13.08223830       11.10558164       19.23536119
C          12.02705608       12.03977608       19.28258910
C          11.53344275       12.77936025       18.14191433
C          11.08598932       14.10281760       18.55861576
C          11.33383998       15.25175467       17.78340592
C          11.78574014       16.41551830       18.39274247
C          12.68447042       17.18744858       17.46551845
C          13.79329442       17.79878471       18.08398311
C          17.01701874       16.11245868       20.82306652
C          16.43743655       15.92623725       16.20246949
C          17.35678589       15.94396616       17.24321443
C          17.93925377       14.57812754       17.70493252
C          17.54552920       13.43542696       17.05722941
C          16.53523061       13.45362439       16.00261523
C          14.56787528       14.77959900       15.38483275
C          14.12687294       16.08763726       15.79148274
C          15.33956758       16.84786300       16.30758643
C          15.14837900       17.67686834       17.45100446
C          16.11050272       17.58397040       18.54558757
C          17.21926200       16.74181047       18.44380615
C          18.11900132       14.61634394       19.10339557
C          17.86629664       13.52264075       19.94950513
C          17.46156263       12.28795442       19.32868038
C          17.27746070       12.22797392       17.95301690
C          16.04017146       11.53626891       17.41795642
C          15.61870940       12.32138212       16.28383567
C          14.23817645       12.34857874       15.95456965
C          13.69158053       13.64812958       15.51607792
C          12.87418999       16.27585102       16.33447042
C          12.00174632       15.10539604       16.55544035
C          12.42190825       13.80550758       16.16547572
C          12.17531129       12.66808902       16.93777576
C          13.28720480       11.77461370       16.84917110
C          13.76448408       10.98694681       17.93448314
C          15.18194108       10.87799528       18.25524394
C          15.37466889       10.92580868       19.68762966
C          16.47032886       11.62470281       20.21190307
C          17.63859824       15.91816959       19.62266481
C          17.26226444       13.58889616       21.23446325
C          15.93814164       14.69347772       15.61674206
176
MD Time 475.43
C          10.79839687       13.15045531       10.15620251
C           8.95241576       11.57391668       10.24150348
C           9.86705360       10.55432140       10.15886440
C          11.29352324       10.72075176       10.06995845
C          11.73887306       12.03733751       10.10822997
C          13.06160171       12.64921692       10.01904144
N          12.98298857       14.09053954       10.04936429
N          14.19827151       11.97512611        9.84819868
N          17.64809684       15.27680069        9.12753443
C          15.37696755       12.54269732        9.59736241
C          16.61210668       11.86014182        9.34103058
C          16.95737339       10.49327105        9.32650301
C          18.32778295       10.24213289        9.20819956
C          19.34425579       11.23847157        8.91560746
C          18.99810727       12.58008199        8.82933036
C          17.60692442       12.83989368        9.13818512
C          17.00787285       14.15128276        9.24520466
N          15.66136542       13.92907932        9.52688393
C          11.58060142       14.37221521       10.06307011
C           9.40978099       12.92105087       10.24788760
C          17.12962586       16.50490588        9.24492784
C          19.23481802       18.03505476        8.60972400
C          13.46182287       18.39693140       10.06915652
C          12.15883020       19.11096544       10.24459759
C          11.79634594       20.45207120       10.22600187
C          10.45107362       20.80581929       10.17478352
C           9.44834175       19.85043006       10.16600622
C           9.71721193       18.50365667       10.23230653
C          11.10719625       18.13908527       10.20043564
C          11.72656845       16.81368046       10.15041589
N          13.12880133       17.02456461        9.99483747
N          11.08837519       15.63779539       10.19587865
C          17.93510221       17.75885950        9.02355253
C          19.69255464       19.32519607        8.76546155
C          18.88874766       20.46799842        9.13114063
C          17.50884408       20.19437351        9.48509756
C          17.09752077       18.84291940        9.42605277
C          15.75894455       18.19511772        9.70020289
N          15.81142825       16.81865884        9.57126929
N          14.65805876       18.93367385        9.93865630
H          13.81639553       16.26145385        9.92545823
H          14.83723482       14.56356523        9.82183471
H          10.27468962       21.88425793       10.16883121
H          12.57485291       21.19559183       10.13543880
H          16.81499442       20.93455108        9.88975075
H          19.31742191       21.46942040        9.13663623
H          20.63561691       19.55926869        8.27822367
H          19.94855144       17.33937160        8.23422165
H          19.63565774       13.44093980        8.49465855
H          20.35733469       10.93633456        8.79326005
H          18.56948415        9.15782678        9.27219136
H          16.17590776        9.77099000        9.54326699
H          11.94890328        9.88961399        9.91794304
H           9.51243864        9.52280476       10.29589410
H           7.88260728       11.31767028       10.26361257
H           8.78574786       13.74830608       10.39921651
H           8.96125501       17.75131869       10.16224285
H           8.43892004       20.16783034       10.17400052
C          10.26668292       11.64899873       13.17102844
C           8.55104816        9.93825410       13.42794486
C           9.57756808        8.95441512       13.57171955
C          10.92226579        9.29733544       13.51590273
C          11.28664381       10.67629704       13.32794653
C          12.53047900       11.42295229       13.26162459
N          12.25718776       12.82222546       13.28227414
N          13.75932367       10.91735895       13.14895958
N          17.26985500       14.22378008       12.29872673
C          14.94690070       11.53150269       13.05649027
C          16.22693354       10.82103463       12.96614619
C          16.57424589        9.49403193       13.20224956
C          17.97104609        9.18316305       13.00035725
C          18.90299630       10.13505965       12.67189428
C          18.55482619       11.48788453       12.55682974
C          17.21048721       11.80988050       12.60466875
C          16.59947695       13.08256993       12.40140731
N          15.24598018       12.90801129       12.71603677
C          10.93385956       13.02648699       13.14071903
C           8.93768516       11.28178096       13.25311687
C          16.65712126       15.42445738       12.33699069
C          18.67657068       17.01816784       11.98134195
C          12.77114034       17.01847614       13.06987291
C          11.48522740       17.72222521       13.26718981
C          11.23995198       19.12846578       13.48612359
C           9.89878575       19.52742767       13.66120854
C           8.85024141       18.55314846       13.36814543
C           9.08797701       17.19110173       13.17019501
C          10.44933354       16.77243376       13.18942901
C          11.01462552       15.41094812       13.03687130
N          12.39440684       15.64525168       12.95216161
N          10.32421647       14.25170057       13.04893953
C          17.36891049       16.65032186       12.32562967
C          19.03604185       18.40203943       12.04438250
C          18.13258598       19.38116769       12.55624033
C          16.81630901       18.98182739       12.94183913
C          16.43948158       17.66135639       12.71971152
C          15.16731510       17.01713870       12.88826552
N          15.26674586       15.61058288       12.59481099
N          13.96480443       17.63734777       13.02634344
H          13.04200812       14.90353096       12.85228655
H          14.66336151       13.74212715       12.92088094
H           9.59933923       20.57241139       13.73326364
H          11.99354870       19.79532507       13.80877520
H          16.12563738       19.70525435       13.39319177
H          18.38651225       20.42686159       12.73912148
H          20.05699579       18.70450142       11.73620477
H          19.45449498       16.29640119       11.63924112
H          19.31857094       12.23174843       12.30906751
H          19.96343072        9.94820213       12.74897611
H          18.25410377        8.13164206       13.13797377
H          15.85928362        8.78637960       13.60262022
H          11.65973558        8.50232764       13.58677157
H           9.28559030        7.92099541       13.85378139
H           7.48976810        9.66439007       13.26887419
H           8.21813528       12.07897567       13.12632582
H           8.30676564       16.44955015       12.96868549
H           7.84245049       18.95665165       13.38243321
C          13.29052984       14.02742611       22.04149008
C          14.65139975       13.94254685       22.37126638
C          15.49560272       15.05560168       22.31082019
C          14.94821914       16.31511337       21.87572151
C          13.54995008       16.43815498       21.63194143
C          12.73721135       15.25550962       21.67568466
C          12.80424028       12.82360030       21.45368202
C          13.94259628       11.90131443       21.40176102
C          15.04459560       12.61743475       22.02190354
C          16.35422825       12.42341918       21.41258842
C          16.82390444       14.93208184       21.66479933
C          15.93493948       17.05949796       20.99990600
C          15.43927042       17.76581449       19.84606619
C          14.01179610       17.88267345       19.58436234
C          13.08569880       17.22955011       20.42037258
C          11.97953299       16.46611211       19.81882973
C          11.73175325       15.30454366       20.63861340
C          11.26439448       14.16121466       20.03248503
C          11.85457312       12.91747332       20.45194802
C          14.05924483       11.07926963       20.29984143
C          13.08477208       11.10434065       19.23312806
C          12.02998191       12.03698464       19.28447244
C          11.53670786       12.77965954       18.14215547
C          11.08392465       14.10461706       18.55461336
C          11.33810810       15.24961106       17.78745616
C          11.78551735       16.42073489       18.39412858
C          12.68057569       17.18389229       17.46814581
C          13.79367143       17.79971782       18.08109491
C          17.01600074       16.11111579       20.82594711
C          16.43786308       15.92716745       16.20429102
C          17.36152920       15.93912259       17.24736285
C          17.93926553       14.57877176       17.70098975
C          17.54790519       13.43570615       17.05727256
C          16.53531985       13.45680005       16.00600436
C          14.56870721       14.78258914       15.38727449
C          14.12583030       16.09092285       15.79730787
C          15.34030828       16.84710140       16.30781460
C          15.14668866       17.67628055       17.45070347
C          16.10677506       17.58421645       18.54493341
C          17.21797981       16.74404803       18.44432094
C          18.11852334       14.61622198       19.10266788
C          17.86529202       13.51998797       19.95085172
C          17.45859116       12.28733955       19.33086427
C          17.27820467       12.22836088       17.95173040
C          16.04240853       11.53937358       17.41737274
C          15.61640940       12.32687521       16.28506734
C          14.23883672       12.34947577       15.95942168
C          13.69136382       13.65116462       15.51717286
C          12.87696220       16.27601252       16.33051913
C          12.00393587       15.10528919       16.55330468
C          12.42227054       13.80753327       16.17024099
C          12.17334386       12.66524405       16.93818098
C          13.29047035       11.77379962       16.84650820
C          13.76548068       10.98838708       17.93507281
C          15.17988062       10.87800543       18.25257630
C          15.37292964       10.92638703       19.68799068
C          16.47519381       11.62238364       20.21093831
C          17.63656487       15.91674287       19.62500436
C          17.26084183       13.58664752       21.23528527
C          15.94006356       14.69381132       15.61847430
176
MD Time 496.10
C          10.80062825       13.15216653       10.15357323
C           8.95290849       11.57135196       10.23723469
C           9.86533227       10.55534291       10.15752922
C          11.29677912       10.71854289       10.07226565
C          11.74252596       12.04090262       10.11041405
C          13.06475901       12.65063772       10.02096807
N          12.98505191       14.09095813       10.04838874
N          14.20065056       11.97343293        9.84946474
N          17.64597314       15.27928527        9.12562054
C          15.37843699       12.54312345        9.59490163
C          16.61107655       11.86046595        9.33330355
C          16.95640330       10.49268312        9.32534154
C          18.32814404       10.24262782        9.20708673
C          19.34174367       11.23758435        8.91700222
C          18.99557860       12.57569889        8.82237999
C          17.60676099       12.84190741        9.13578673
C          17.00950497       14.15225102        9.24288646
N          15.66070983       13.93069195        9.52603109
C          11.57793284       14.37715323       10.06074250
C           9.40953949       12.92266719       10.24665166
C          17.13097409       16.50579330        9.24117734
C          19.23461096       18.03647787        8.60787791
C          13.45830282       18.39519555       10.06984590
C          12.15963949       19.10706046       10.24481179
C          11.79581310       20.45016157       10.22908859
C          10.45169887       20.81180511       10.17405056
C           9.44599278       19.84714589       10.16733115
C           9.71768508       18.50793344       10.23104008
C          11.10862645       18.13814855       10.20218802
C          11.72711982       16.80936334       10.14910934
N          13.12961588       17.02717886        9.99669880
N          11.08591119       15.63940362       10.19663775
C          17.93442324       17.75893168        9.02214040
C          19.69206679       19.32704178        8.76834451
C          18.89103487       20.46668703        9.12939615
C          17.51051476       20.19611571        9.48268327
C          17.10008840       18.84258375        9.42538652
C          15.76112754       18.19574011        9.70230252
N          15.81052394       16.81942950        9.56800613
N          14.65880057       18.93548372        9.94275335
H          13.81576080       16.26432039        9.91562099
H          14.83177707       14.57547795        9.81114379
H          10.27353695       21.88772201       10.18370242
H          12.57636011       21.18587643       10.14118050
H          16.81491918       20.93603145        9.89499565
H          19.31133947       21.46921233        9.13141365
H          20.63402363       19.55222341        8.27036493
H          19.93616570       17.33558147        8.23733216
H          19.63180883       13.45249054        8.49575873
H          20.34498348       10.93227560        8.78887130
H          18.57728704        9.15938468        9.27371835
H          16.16711302        9.77309081        9.54323556
H          11.94562946        9.89059443        9.90917433
H           9.51788299        9.51470306       10.29271485
H           7.87713821       11.31537266       10.25749995
H           8.78631214       13.73185052       10.39177174
H           8.96256016       17.76240506       10.16616865
H           8.43243960       20.17401479       10.17768508
C          10.27217586       11.64818608       13.16784056
C           8.55067656        9.93955545       13.42492955
C           9.57307866        8.95435134       13.56910925
C          10.92165018        9.29484306       13.51496925
C          11.28398881       10.67561287       13.32986999
C          12.53180520       11.42194321       13.26165254
N          12.25896706       12.82350366       13.28116528
N          13.75912545       10.91615766       13.14958032
N          17.27170022       14.22527339       12.29723990
C          14.94484865       11.53292670       13.05569547
C          16.22792597       10.82509482       12.96495664
C          16.57437034        9.49785676       13.20339951
C          17.96996287        9.18317075       12.99772585
C          18.90680363       10.13343362       12.67618316
C          18.55155802       11.48623377       12.55548679
C          17.20768450       11.80511042       12.60426574
C          16.60226462       13.08207163       12.40093297
N          15.24499452       12.90822085       12.71542205
C          10.93180063       13.02930826       13.13652959
C           8.93649450       11.28111753       13.25489103
C          16.65774098       15.42629639       12.33661584
C          18.67793257       17.01673537       11.98309056
C          12.77319828       17.01970726       13.06952089
C          11.48689515       17.72393431       13.26716610
C          11.23913891       19.12569715       13.48558268
C           9.89962425       19.52739343       13.66262274
C           8.85039306       18.55175901       13.36880087
C           9.08865876       17.19303421       13.16635138
C          10.45244244       16.77259885       13.19346046
C          11.01076714       15.41211954       13.03417133
N          12.39500234       15.64373293       12.95284502
N          10.32215233       14.25281279       13.04691351
C          17.36565555       16.64906084       12.32971458
C          19.03457362       18.40190866       12.04673132
C          18.13254685       19.38075095       12.55848199
C          16.81327832       18.98271183       12.94175904
C          16.44098562       17.66080428       12.72257201
C          15.17155617       17.01466161       12.89009427
N          15.27097131       15.61230302       12.59395640
N          13.96298839       17.64112024       13.02672139
H          13.04357261       14.90151637       12.85533068
H          14.66279681       13.73900785       12.92834906
H           9.60510204       20.57380644       13.74416703
H          11.98509665       19.79462942       13.80483615
H          16.12203235       19.70491217       13.39328639
H          18.38719043       20.42763938       12.73339343
H          20.05363903       18.71615213       11.74099269
H          19.46471169       16.29030292       11.63553232
H          19.31619591       12.23032926       12.30002870
H          19.95843576        9.94656684       12.75273152
H          18.25158922        8.12016415       13.14712853
H          15.86062767        8.78494716       13.59457967
H          11.65779436        8.50314779       13.58909551
H           9.28390269        7.90641431       13.84593021
H           7.48582143        9.66298282       13.26991846
H           8.20942695       12.07638118       13.12354672
H           8.30862891       16.44898089       12.97223909
H           7.84552592       18.95856058       13.38340322
C          13.28521555       14.02564636       22.04026144
C          14.65379279       13.94061962       22.37239195
C          15.49943523       15.05126522       22.31518811
C          14.94959828       16.32002929       21.87786195
C          13.55126289       16.44312901       21.63123061
C          12.73804102       15.25289977       21.67636085
C          12.79943608       12.82271140       21.45404745
C          13.94182991       11.89919124       21.39918110
C          15.04635059       12.61554122       22.02192392
C          16.35499247       12.42285717       21.41172592
C          16.82276828       14.93004521       21.66479243
C          15.93495838       17.06387189       21.00204897
C          15.43703831       17.76592531       19.84840677
C          14.01060422       17.88344142       19.58166602
C          13.08766659       17.23174671       20.42541524
C          11.97924454       16.46624456       19.82097881
C          11.73146847       15.30417776       20.63805543
C          11.26463088       14.16039075       20.02963469
C          11.85867896       12.91272627       20.44973309
C          14.05533662       11.07981836       20.30182937
C          13.08712990       11.10326919       19.23070414
C          12.03274439       12.03419946       19.28657350
C          11.53980444       12.78003762       18.14257394
C          11.08181847       14.10629918       18.55097388
C          11.34218679       15.24714962       17.79158146
C          11.78541239       16.42653568       18.39596418
C          12.67672588       17.18013920       17.47112631
C          13.79427266       17.80071238       18.07821234
C          17.01507483       16.10961268       20.82907740
C          16.43830699       15.92825410       16.20617588
C          17.36657726       15.93380176       17.25167391
C          17.93922877       14.57994311       17.69679905
C          17.55012978       13.43550942       17.05748295
C          16.53516628       13.45994157       16.00950825
C          14.56904954       14.78540721       15.38963823
C          14.12508166       16.09441840       15.80308318
C          15.34058764       16.84633085       16.30809616
C          15.14487263       17.67558424       17.45048852
C          16.10304672       17.58459683       18.54436752
C          17.21671057       16.74611717       18.44488612
C          18.11794008       14.61633478       19.10246337
C          17.86448774       13.51721418       19.95198133
C          17.45548429       12.28654708       19.33298135
C          17.27877211       12.22879950       17.95015606
C          16.04527058       11.54278388       17.41666930
C          15.61407013       12.33229020       16.28609237
C          14.23977071       12.35073680       15.96415025
C          13.69145094       13.65430088       15.51826783
C          12.87952022       16.27616272       16.32668144
C          12.00627953       15.10506103       16.55081699
C          12.42263964       13.81004566       16.17466583
C          12.17128593       12.66212114       16.93864102
C          13.29393028       11.77258751       16.84393003
C          13.76629594       10.98987687       17.93576965
C          15.17768692       10.87798040       18.24979456
C          15.37122897       10.92697854       19.68839939
C          16.48014496       11.62000015       20.20997510
C          17.63474958       15.91547800       19.62674232
C          17.25912100       13.58493366       21.23636820
C          15.94254784       14.69382584       15.62029033
176
MD Time 516.77
C          10.80279057       13.15364416       10.15092415
C           8.95326183       11.56913570       10.23293891
C           9.86400109       10.55589224       10.15620856
C          11.29962624       10.71661811       10.07460119
C          11.74612126       12.04466819       10.11252042
C          13.06789520       12.65238568       10.02289811
N          12.98690871       14.09114112       10.04735275
N          14.20306665       11.97163953        9.85070206
N          17.64404454       15.28203465        9.12361949
C          15.37987414       12.54369530        9.59242679
C          16.61016852       11.86070676        9.32558531
C          16.95550517       10.49235782        9.32426470
C          18.32855884       10.24287598        9.20589581
C          19.33890128       11.23658225        8.91846108
C          18.99270081       12.57149514        8.81545641
C          17.60693856       12.84404256        9.13322285
C          17.01089470       14.15298499        9.24063003
N          15.65967971       13.93233430        9.52530320
C          11.57565022       14.38231384       10.05862805
C           9.40967352       12.92387037       10.24533263
C          17.13235068       16.50683661        9.23729935
C          19.23426819       18.03789346        8.60622559
C          13.45451772       18.39340239       10.07054655
C          12.16042191       19.10296091       10.24488477
C          11.79538791       20.44823306       10.23210944
C          10.45251956       20.81794267       10.17337839
C           9.44356796       19.84402858       10.16873010
C           9.71870210       18.51205828       10.22966409
C          11.10996204       18.13708813       10.20405881
C          11.72777574       16.80498736       10.14771040
N          13.13026503       17.02980503        9.99862570
N          11.08334577       15.64097963       10.19728291
C          17.93360414       17.75895717        9.02085219
C          19.69160164       19.32940018        8.77097013
C          18.89301987       20.46497510        9.12774062
C          17.51244339       20.19774191        9.48026366
C          17.10245757       18.84215512        9.42472664
C          15.76347147       18.19649263        9.70433425
N          15.80969907       16.82026142        9.56475463
N          14.65957673       18.93734901        9.94687909
H          13.81517867       16.26804251        9.90575696
H          14.83006750       14.58556108        9.79881180
H          10.27108688       21.89126554       10.19825274
H          12.57883007       21.17752223       10.14736265
H          16.81511134       20.93776375        9.89949470
H          19.30531353       21.46934507        9.12633331
H          20.63382269       19.54539342        8.26341892
H          19.92498800       17.32876786        8.23949828
H          19.62694480       13.46138149        8.49831394
H          20.33574730       10.92686449        8.78389206
H          18.58620356        9.16254249        9.27510513
H          16.15891987        9.77427418        9.54293934
H          11.94396776        9.88971268        9.90081262
H           9.52326452        9.50726067       10.28858264
H           7.87257026       11.31381966       10.25185801
H           8.78279655       13.71990511       10.38457086
H           8.96221018       17.77161370       10.17036110
H           8.42333697       20.18098536       10.18110473
C          10.27763486       11.64758010       13.16481993
C           8.55035939        9.94082477       13.42178454
C           9.56833981        8.95418357       13.56660334
C          10.92113519        9.29261225       13.51397755
C          11.28125265       10.67474697       13.33173506
C          12.53323556       11.42120484       13.26169105
N          12.26100350       12.82471352       13.27992709
N          13.75900410       10.91489211       13.15034141
N          17.27355377       14.22682567       12.29560020
C          14.94278349       11.53446131       13.05466530
C          16.22878836       10.82934980       12.96375482
C          16.57485736        9.50175328       13.20446412
C          17.96843181        9.18277769       12.99524480
C          18.91072323       10.13210397       12.68061233
C          18.54839203       11.48453058       12.55396317
C          17.20496041       11.80022104       12.60383455
C          16.60488863       13.08155153       12.40078413
N          15.24390880       12.90834722       12.71489677
C          10.92962016       13.03188956       13.13238251
C           8.93519109       11.28049753       13.25660037
C          16.65811758       15.42780011       12.33636372
C          18.67947620       17.01538932       11.98480047
C          12.77509604       17.02093519       13.06922821
C          11.48874148       17.72583131       13.26715902
C          11.23797698       19.12257675       13.48522285
C           9.90036566       19.52698706       13.66367909
C           8.85067209       18.55060824       13.36959913
C           9.08955647       17.19494289       13.16254799
C          10.45525850       16.77266855       13.19739054
C          11.00693937       15.41347330       13.03153871
N          12.39556162       15.64239754       12.95358075
N          10.32014348       14.25391564       13.04492494
C          17.36262545       16.64815083       12.33378699
C          19.03312697       18.40177972       12.04917268
C          18.13234485       19.38013818       12.56079126
C          16.81043480       18.98371483       12.94160280
C          16.44251208       17.66030990       12.72552274
C          15.17539742       17.01183984       12.89170141
N          15.27537529       15.61422939       12.59318683
N          13.96120874       17.64479694       13.02718827
H          13.04749393       14.89699891       12.85791114
H          14.66234475       13.73498259       12.93458052
H           9.61121177       20.57541215       13.75598562
H          11.98039652       19.79605270       13.80041344
H          16.11835531       19.70426551       13.39283744
H          18.38884056       20.42839989       12.72703782
H          20.04903605       18.72732233       11.74609817
H          19.47258318       16.28530326       11.63255665
H          19.31324124       12.22902644       12.29138096
H          19.95539330        9.94337870       12.75561536
H          18.24929125        8.10989163       13.15625877
H          15.86142589        8.78273257       13.58626592
H          11.65697979        8.50395060       13.59176924
H           9.28274366        7.89351196       13.83675113
H           7.48313886        9.66164576       13.27232731
H           8.19968207       12.07396635       13.12082104
H           8.31041318       16.44883841       12.97611572
H           7.84743041       18.96013094       13.38413688
C          13.27958552       14.02416329       22.03919953
C          14.65626162       13.93862603       22.37372616
C          15.50346974       15.04704002       22.31937263
C          14.95086313       16.32523017       21.87991422
C          13.55275169       16.44824577       21.63024096
C          12.73879611       15.25031675       21.67713044
C          12.79473172       12.82171684       21.45452698
C          13.94081511       11.89729143       21.39682096
C          15.04871473       12.61332788       22.02161338
C          16.35559028       12.42251838       21.41097508
C          16.82153292       14.92757529       21.66486259
C          15.93461277       17.06809160       21.00411053
C          15.43489253       17.76589085       19.85081395
C          14.00926430       17.88409516       19.57877179
C          13.08967699       17.23377138       20.43050280
C          11.97896390       16.46662567       19.82294141
C          11.73117168       15.30400910       20.63743623
C          11.26486358       14.15939053       20.02656359
C          11.86270013       12.90770184       20.44735791
C          14.05166210       11.08019137       20.30368373
C          13.08928975       11.10236999       19.22810991
C          12.03532817       12.03143140       19.28885252
C          11.54272280       12.78048171       18.14318159
C          11.07968204       14.10781980       18.54774055
C          11.34609619       15.24444007       17.79572795
C          11.78540292       16.43285122       18.39824121
C          12.67297293       17.17622670       17.47443250
C          13.79506070       17.80175657       18.07535014
C          17.01424290       16.10796417       20.83243683
C          16.43879633       15.92948073       16.20813897
C          17.37187379       15.92805480       17.25610120
C          17.93916438       14.58163958       17.69242567
C          17.55219098       13.43482976       17.05784513
C          16.53477321       13.46303394       16.01311621
C          14.56890705       14.78804576       15.39192641
C          14.12469463       16.09808673       15.80875797
C          15.34040871       16.84556719       16.30844463
C          15.14294012       17.67478275       17.45035564
C          16.09934150       17.58510271       18.54390039
C          17.21546114       16.74799639       18.44550856
C          18.11724655       14.61666183       19.10278129
C          17.86388862       13.51435190       19.95288317
C          17.45226634       12.28558013       19.33498622
C          17.27916809       12.22928677       17.94832207
C          16.04871953       11.54648317       17.41585162
C          15.61173143       12.33760571       16.28693072
C          14.24097192       12.35239198       15.96871519
C          13.69183951       13.65752955       15.51937457
C          12.88178455       16.27631577       16.32301887
C          12.00875044       15.10473389       16.54802430
C          12.42303167       13.81300233       16.17873073
C          12.16916763       12.65873542       16.93912991
C          13.29753546       11.77098077       16.84146955
C          13.76693382       10.99140832       17.93654821
C          15.17540318       10.87793421       18.24692353
C          15.36958598       10.92758671       19.68884322
C          16.48512565       11.61753457       20.20902380
C          17.63314847       15.91438204       19.62788061
C          17.25711672       13.58375549       21.23770226
C          15.94556645       14.69355398       15.62218555
176
MD Time 537.44
C          10.80485836       13.15489913       10.14826551
C           8.95343903       11.56729973       10.22862482
C           9.86310149       10.55591435       10.15490294
C          11.30204368       10.71504115       10.07696149
C          11.74963748       12.04857430       10.11454533
C          13.07100531       12.65446303       10.02482797
N          12.98855329       14.09110723       10.04625522
N          14.20551821       11.96975799        9.85190924
N          17.64232549       15.28502515        9.12152694
C          15.38125821       12.54441712        9.58994253
C          16.60939371       11.86087162        9.31789104
C          16.95466238       10.49228123        9.32326976
C          18.32900545       10.24286996        9.20463893
C          19.33571936       11.23546686        8.91996932
C          18.98948974       12.56754135        8.80857192
C          17.60744880       12.84626924        9.13048433
C          17.01202386       14.15349761        9.23843835
N          15.65828964       13.93401030        9.52468968
C          11.57377601       14.38763961       10.05672830
C           9.41024374       12.92456675       10.24391173
C          17.13372761       16.50804547        9.23330360
C          19.23375674       18.03931133        8.60478795
C          13.45053655       18.39158206       10.07125752
C          12.16115058       19.09870172       10.24482237
C          11.79505268       20.44628132       10.23505822
C          10.45351158       20.82415019       10.17278339
C           9.44104449       19.84121415       10.17019646
C           9.72027633       18.51598562       10.22818920
C          11.11119378       18.13589224       10.20603713
C          11.72852884       16.80062422       10.14623005
N          13.13074229       17.03240577       10.00060767
N          11.08068045       15.64250917       10.19780879
C          17.93266708       17.75894442        9.01968096
C          19.69119854       19.33222250        8.77330172
C          18.89468055       20.46289328        9.12618235
C          17.51460711       20.19924264        9.47785559
C          17.10461368       18.84165687        9.42408193
C          15.76594544       18.19737897        9.70629742
N          15.80896343       16.82115684        9.56151637
N          14.66036972       18.93925125        9.95103082
H          13.81473299       16.27260438        9.89593524
H          14.83220039       14.59355894        9.78493289
H          10.26737966       21.89501970       10.21241021
H          12.58242618       21.17073840       10.15397545
H          16.81577192       20.93956099        9.90309385
H          19.29947445       21.46990180        9.12139410
H          20.63485184       19.53886606        8.25755041
H          19.91532028       17.31887100        8.24059398
H          19.62095163       13.46718383        8.50232785
H          20.33004007       10.92003775        8.77830367
H          18.59612173        9.16723982        9.27636053
H          16.15163361        9.77474350        9.54231734
H          11.94404793        9.88684091        9.89287413
H           9.52859010        9.50087821       10.28346520
H           7.86924673       11.31308246       10.24667376
H           8.77462112       13.71331830       10.37774340
H           8.96004170       17.77867597       10.17479319
H           8.41242559       20.18835865       10.18426038
C          10.28295264       11.64719242       13.16197313
C           8.55006601        9.94204131       13.41852051
C           9.56339709        8.95385745       13.56420625
C          10.92067550        9.29065717       13.51293263
C          11.27848707       10.67369483       13.33353553
C          12.53474239       11.42074482       13.26174367
N          12.26327553       12.82585351       13.27855661
N          13.75896367       10.91356263       13.15124162
N          17.27540731       14.22841653       12.29381261
C          14.94072727       11.53610487       13.05339962
C          16.22947939       10.83374409       12.96255993
C          16.57570283        9.50570644       13.20543169
C          17.96648074        9.18193772       12.99294087
C          18.91467681       10.13108271       12.68516832
C          18.54536931       11.48276024       12.55225833
C          17.20234439       11.79527781       12.60335966
C          16.60733212       13.08102280       12.40095701
N          15.24273912       12.90838257       12.71446045
C          10.92736546       13.03420620       13.12828774
C           8.93380069       11.27996505       13.25822450
C          16.65825832       15.42894273       12.33623223
C          18.68120242       17.01410790       11.98646627
C          12.77681594       17.02214463       13.06899588
C          11.49076116       17.72787893       13.26716644
C          11.23646972       19.11913576       13.48504680
C           9.90100276       19.52620684       13.66438278
C           8.85107909       18.54972262       13.37053994
C           9.09068788       17.19680835       13.15880227
C          10.45775094       16.77266023       13.20120016
C          11.00318628       15.41500557       13.02898525
N          12.39609868       15.64122914       12.95436261
N          10.31818464       14.25500763       13.04297074
C          17.35990247       16.64761088       12.33782401
C          19.03170701       18.40165028       12.05170556
C          18.13195916       19.37933626       12.56316662
C          16.80779947       18.98483614       12.94137223
C          16.44404465       17.65988246       12.72856640
C          15.17878754       17.00871295       12.89309252
N          15.27992803       15.61635244       12.59250714
N          13.95951514       17.64835448       13.02773997
H          13.05337475       14.89037084       12.86007222
H          14.66193324       13.73022570       12.93955228
H           9.61764403       20.57708573       13.76864844
H          11.97955416       19.79962880       13.79552929
H          16.11457629       19.70335557       13.39184889
H          18.39142116       20.42910454       12.72010159
H          20.04325744       18.73787438       11.75147090
H          19.47769797       16.28175136       11.63050342
H          19.30957071       12.22776299       12.28319530
H          19.95490244        9.93858380       12.75767928
H          18.24702212        8.10157842       13.16517047
H          15.86167742        8.77983925       13.57770505
H          11.65738533        8.50459581       13.59478227
H           9.28217103        7.88295690       13.82615470
H           7.48187368        9.66047224       13.27607236
H           8.18929366       12.07149949       13.11822302
H           8.31208980       16.44910784       12.98024504
H           7.84810111       18.96134093       13.38463722
C          13.27371986       14.02296735       22.03833310
C          14.65875430       13.93655641       22.37525455
C          15.50767018       15.04297824       22.32335760
C          14.95201898       16.33067391       21.88189042
C          13.55441558       16.45345898       21.62899844
C          12.73946561       15.24780897       21.67797107
C          12.79017517       12.82059701       21.45513773
C          13.93954758       11.89565574       21.39472629
C          15.05165572       12.61080078       22.02096886
C          16.35602507       12.42239294       21.41033702
C          16.82020069       14.92468036       21.66501918
C          15.93391504       17.07212623       21.00610371
C          15.43283252       17.76572306       19.85325462
C          14.00778497       17.88463264       19.57570775
C          13.09170606       17.23562405       20.43559327
C          11.97870576       16.46727451       19.82472721
C          11.73086483       15.30401703       20.63675934
C          11.26510510       14.15820754       20.02329127
C          11.86658480       12.90245297       20.44481057
C          14.04825775       11.08035911       20.30536128
C          13.09123194       11.10164432       19.22536930
C          12.03771817       12.02868998       19.29126717
C          11.54545477       12.78097700       18.14398684
C          11.07752618       14.10913577       18.54495292
C          11.34985799       15.24155877       17.79984249
C          11.78546254       16.43960295       18.40094580
C          12.66937001       17.17219453       17.47803368
C          13.79599636       17.80283834       18.07252395
C          17.01350830       16.10618621       20.83599840
C          16.43935845       15.93082795       16.21019390
C          17.37735867       15.92193985       17.26059578
C          17.93909398       14.58384681       17.68793739
C          17.55407874       13.43366913       17.05834426
C          16.53414773       13.46605990       16.01681863
C          14.56829683       14.79049995       15.39414197
C          14.12473011       16.10188919       15.81428248
C          15.33977964       16.84482511       16.30887311
C          15.14090120       17.67388048       17.45030118
C          16.09568527       17.58572342       18.54354207
C          17.21423775       16.74966587       18.44619362
C          18.11643917       14.61718184       19.10361190
C          17.86349646       13.51143393       19.95355242
C          17.44896364       12.28444424       19.33683357
C          17.27939944       12.22981945       17.94625938
C          16.05270847       11.55044958       17.41492683
C          15.60943533       12.34280057       16.28760264
C          14.24243048       12.35446679       15.97307909
C          13.69252305       13.66084099       15.52050497
C          12.88367944       16.27648642       16.31959069
C          12.01131833       15.10433441       16.54497828
C          12.42346342       13.81634926       16.18241849
C          12.16702001       12.65510712       16.93962057
C          13.30123490       11.76898801       16.83915603
C          13.76740055       10.99297278       17.93738218
C          15.17307738       10.87788282       18.24398723
C          15.36801959       10.92821426       19.68930752
C          16.49007909       11.61497045       20.20809665
C          17.63175367       15.91346269       19.62843349
C          17.25484711       13.58310737       21.23927198
C          15.94908144       14.69303424       15.62415306
176
MD Time 558.11
C          10.80681035       13.15594700       10.14560773
C           8.95341736       11.56586737       10.22430152
C           9.86266697       10.55537099       10.15361210
C          11.30402954       10.71385126       10.07933867
C          11.75305354       12.05256186       10.11648513
C          13.07408315       12.65686786       10.02675355
N          12.98998169       14.09087738       10.04509549
N          14.20800233       11.96780198        9.85308481
N          17.64082751       15.28822614        9.11933957
C          15.38256862       12.54528937        9.58745392
C          16.60876172       11.86097144        9.31023760
C          16.95385991       10.49243593        9.32235365
C          18.32946119       10.24261150        9.20332803
C          19.33222191       11.23423273        8.92150738
C          18.98595881       12.56389208        8.80174419
C          17.60827620       12.84855683        9.12756428
C          17.01287888       14.15380970        9.23631360
N          15.65657071       13.93571222        9.52417475
C          11.57232748       14.39306725       10.05504420
C           9.41125954       12.92472638       10.24238111
C          17.13507643       16.50942815        9.22920100
C          19.23306558       18.04072341        8.60357460
C          13.44643114       18.38976619       10.07197774
C          12.16179846       19.09432211       10.24463107
C          11.79479923       20.44431169       10.23792782
C          10.45464907       20.83035086       10.17228115
C           9.43839253       19.83883507       10.17172326
C           9.72239743       18.51965621       10.22662572
C          11.11231479       18.13454922       10.20811079
C          11.72937094       16.79634555       10.14468001
N          13.13104115       17.03494417       10.00263375
N          11.07791788       15.64397857       10.19821051
C          17.93163516       17.75890322        9.01861943
C          19.69089985       19.33545086        8.77530170
C          18.89599990       20.46048354        9.12472901
C          17.51698006       20.20060569        9.47547588
C          17.10654351       18.84111390        9.42346123
C          15.76851589       18.19840202        9.70819160
N          15.80832643       16.82211793        9.55829339
N          14.66116161       18.94117134        9.95520484
H          13.81452447       16.27795095        9.88622465
H          14.83807676       14.59940051        9.76967495
H          10.26248452       21.89907206       10.22610764
H          12.58719416       21.16561052       10.16101784
H          16.81708159       20.94125509        9.90565342
H          19.29391791       21.47089107        9.11659711
H          20.63690686       19.53272711        8.25293553
H          19.90722747       17.30609599        8.24062683
H          19.61383612       13.46964539        8.50773303
H          20.32787069       10.91186772        8.77214124
H          18.60693176        9.17330846        9.27750091
H          16.14554199        9.77470628        9.54131411
H          11.94581398        9.88209357        9.88541963
H           9.53383983        9.49585057       10.27735241
H           7.86740020       11.31320332       10.24193271
H           8.76178353       13.71221939       10.37129231
H           8.95610939       17.78353043       10.17945076
H           8.40062026       20.19571211       10.18715065
C          10.28802393       11.64703370       13.15930643
C           8.54977406        9.94318643       13.41515086
C           9.55830432        8.95333466       13.56191741
C          10.92022964        9.28898408       13.51184065
C          11.27574486       10.67245601       13.33526521
C          12.53629778       11.42056769       13.26181391
N          12.26576042       12.82692222       13.27705108
N          13.75900797       10.91217021       13.15227915
N          17.27725130       14.23002349       12.29188320
C          14.93870148       11.53785365       13.05189984
C          16.22995814       10.83821793       12.96139191
C          16.57689243        9.50969462       13.20629389
C          17.96414337        9.18062605       12.99083737
C          18.91859999       10.13037129       12.68983815
C          18.54252956       11.48090726       12.55037396
C          17.19986593       11.79035006       12.60282530
C          16.60958079       13.08049811       12.40144618
N          15.24150526       12.90831567       12.71411070
C          10.92508382       13.03623717       13.12425578
C           8.93234607       11.27956366       13.25974289
C          16.65817570       15.42970695       12.33621840
C          18.68309977       17.01288022       11.98808758
C          12.77834231       17.02332110       13.06882468
C          11.49294505       17.73003537       13.26718606
C          11.23465169       19.11543099       13.48506582
C           9.90152724       19.52506003       13.66474274
C           8.85160662       18.54912645       13.37162158
C           9.09206702       17.19861333       13.15513233
C          10.45989442       16.77259297       13.20487041
C          10.99955087       15.41670875       13.02652272
N          12.39664381       15.64019333       12.95518199
N          10.31627131       14.25608671       13.04104837
C          17.35756258       16.64745440       12.34180331
C          19.03031270       18.40151528       12.05433006
C          18.13137374       19.37835600       12.56560520
C          16.80539065       18.98607264       12.94106942
C          16.44556613       17.65953017       12.73170476
C          15.18168310       17.00532466       12.89427350
N          15.28459635       15.61865854       12.59192164
N          13.95795328       17.65176992       13.02837237
H          13.06058759       14.88228017       12.86188925
H          14.66144232       13.72497511       12.94327025
H           9.62437981       20.57863978       13.78206682
H          11.98232948       19.80510127       13.79008843
H          16.11065857       19.70224132       13.39033460
H          18.39486899       20.42968687       12.71263550
H          20.03646124       18.74770336       11.75703545
H          19.47981367       16.27985607       11.62949115
H          19.30509004       12.22649186       12.27552945
H          19.95731343        9.93218701       12.75896447
H          18.24463278        8.09579306       13.17368608
H          15.86144318        8.77643875       13.56889568
H          11.65903182        8.50500960       13.59811497
H           9.28218610        7.87522294       13.81411757
H           7.48206665        9.65953045       13.28109991
H           8.17866972       12.06874732       13.11583020
H           8.31362810       16.44976677       12.98455436
H           7.84756503       18.96214723       13.38491122
C          13.26770036       14.02204362       22.03769072
C          14.66122268       13.93440263       22.37696189
C          15.51199650       15.03912660       22.32712942
C          14.95307152       16.33631857       21.88380180
C          13.55625196       16.45872077       21.62753125
C          12.74003708       15.24542703       21.67885894
C          12.78581118       12.81933575       21.45589541
C          13.93802763       11.89431899       21.39293795
C          15.05513262       12.60797217       22.01999151
C          16.35630413       12.42246914       21.40980965
C          16.81877520       14.92137564       21.66527004
C          15.93288146       17.07594369       21.00804139
C          15.43085593       17.76543500       19.85569380
C          14.00617715       17.88505192       19.57250434
C          13.09373021       17.23730737       20.44064151
C          11.97848431       16.46820760       19.82635013
C          11.73054895       15.30417834       20.63602725
C          11.26536849       14.15683987       20.01984197
C          11.87028327       12.89703418       20.44208507
C          14.04515528       11.08029570       20.30682229
C          13.09293932       11.10109169       19.22250984
C          12.03989940       12.02598352       19.29377273
C          11.54799351       12.78150688       18.14499409
C          11.07536151       14.11020603       18.54264603
C          11.35349382       15.23858650       17.80387335
C          11.78556151       16.44670455       18.40405881
C          12.66597125       17.16808459       17.48189571
C          13.79703927       17.80394542       18.06975044
C          17.01287575       16.10429568       20.83972890
C          16.44001920       15.93227387       16.21235241
C          17.38296795       15.91552282       17.26510641
C          17.93903981       14.58653681       17.68340371
C          17.55578531       13.43203930       17.05896632
C          16.53330097       13.46899997       16.02060651
C          14.56724795       14.79276774       15.39628809
C          14.12523924       16.10578616       15.81960886
C          15.33871391       16.84411790       16.30939419
C          15.13876700       17.67288280       17.45032194
C          16.09210586       17.58644646       18.54330200
C          17.21304590       16.75110753       18.44694517
C          18.11551599       14.61787295       19.10493713
C          17.86330996       13.50849315       19.95398998
C          17.44560465       12.28314762       19.33847923
C          17.27947498       12.23039400       17.94400134
C          16.05718198       11.55465567       17.41390346
C          15.60722584       12.34785362       16.28812841
C          14.24413240       12.35698090       15.97720735
C          13.69349103       13.66422450       15.52167056
C          12.88513603       16.27668948       16.31645265
C          12.01394987       15.10389369       16.54173451
C          12.42395186       13.82002152       16.18571378
C          12.16487430       12.65126149       16.94008565
C          13.30497648       11.76662328       16.83701439
C          13.76770464       10.99456042       17.93824479
C          15.17076149       10.87784357       18.24100922
C          15.36654824       10.92886286       19.68977587
C          16.49494887       11.61229339       20.20720771
C          17.63055366       15.91272825       19.62842707
C          17.25233371       13.58297698       21.24105616
C          15.95304563       14.69231074       15.62618365
176
MD Time 578.78
C          10.80863016       13.15680721       10.14296120
C           8.95318989       11.56485251       10.21997830
C           9.86272223       10.55424320       10.15233490
C          11.30560009       10.71306350       10.08172029
C          11.75634901       12.05657369       10.11833638
C          13.07712150       12.65959371       10.02867027
N          12.99119174       14.09047455       10.04387350
N          14.21051464       11.96578686        9.85422733
N          17.63955951       15.29160087        9.11705503
C          15.38378541       12.54630871        9.58496634
C          16.60828018       11.86102011        9.30264324
C          16.95308595       10.49280264        9.32151251
C          18.32990287       10.24211095        9.20197476
C          19.32846517       11.23286764        8.92305034
C          18.98211964       12.56058429        8.79499540
C          17.60939801       12.85087468        9.12445816
C          17.01345064       14.15394894        9.23425723
N          15.65457054       13.93742009        9.52373792
C          11.57131669       14.39852889       10.05357599
C           9.41267516       12.92438472       10.24074326
C          17.13636857       16.51099159        9.22500354
C          19.23220512       18.04210366        8.60258389
C          13.44227491       18.38798762       10.07270606
C          12.16233873       19.08986510       10.24431803
C          11.79462986       20.44233926       10.24071052
C          10.45590467       20.83647507       10.17188657
C           9.43558367       19.83701333       10.17330319
C           9.72503143       18.52300021       10.22498372
C          11.11332050       18.13304810       10.21026637
C          11.73029292       16.79222122       10.14307257
N          13.13115582       17.03738410       10.00469272
N          11.07506209       15.64537526       10.19848369
C          17.93053182       17.75884446        9.01766014
C          19.69074856       19.33901925        8.77693337
C          18.89696624       20.45779876        9.12338739
C          17.51953460       20.20181561        9.47314053
C          17.10823553       18.84055223        9.42287333
C          15.77114711       18.19956400        9.71001657
N          15.80779675       16.82314690        9.55508813
N          14.66193445       18.94308952        9.95939652
H          13.81466308       16.28399375        9.87669224
H          14.84739644       14.60320959        9.75327181
H          10.25650079       21.90345382       10.23928108
H          12.59305036       21.16209282       10.16849648
H          16.81918700       20.94271069        9.90705762
H          19.28870409       21.47224511        9.11194652
H          20.63976395       19.52706263        8.24974716
H          19.90054978       17.29090967        8.23973167
H          19.60572529       13.46869985        8.51439564
H          20.32884984       10.90256529        8.76550028
H          18.61852750        9.18048102        9.27855048
H          16.14089256        9.77435553        9.53988557
H          11.94903568        9.87581476        9.87855852
H           9.53896651        9.49235000       10.27025736
H           7.86713874       11.31419298       10.23761852
H           8.74490138       13.71600440       10.36510260
H           8.95068453       17.78632119       10.18432763
H           8.38883257       20.20262430       10.18977336
C          10.29274820       11.64711285       13.15682563
C           8.54947031        9.94424419       13.41169151
C           9.55312186        8.95259365       13.55973150
C          10.91976188        9.28759096       13.51070900
C          11.27307812       10.67103448       13.33691798
C          12.53787456       11.42067465       13.26190508
N          12.26843453       12.82791822       13.27540805
N          13.75914034       10.91071703       13.15345158
N          17.27907566       14.23162244       12.28981906
C          14.93672643       11.53970143       13.05016898
C          16.23018516       10.84270862       12.96027101
C          16.57840218        9.51369082       13.20704533
C          17.96145852        9.17883986       12.98895363
C          18.92244820       10.12995958       12.69460951
C          18.53990974       11.47895549       12.54831416
C          17.19755389       11.78550946       12.60221586
C          16.61162268       13.07998903       12.40224444
N          15.24022964       12.90813319       12.71384346
C          10.92282175       13.03796551       13.12029742
C           8.93084815       11.27933353       13.26113568
C          16.65788735       15.43008514       12.33631834
C          18.68514496       17.01170639       11.98966906
C          12.77966255       17.02445185       13.06871523
C          11.49528008       17.73225508       13.26721546
C          11.23258441       19.11154071       13.48529743
C           9.90193046       19.52356202       13.66477169
C           8.85223973       18.54884091       13.37284068
C           9.09370360       17.20034304       13.15155663
C          10.46166982       16.77248721       13.20838284
C          10.99607439       15.41857167       13.02416269
N          12.39723608       15.63924602       12.95602907
N          10.31439984       14.25715043       13.03915581
C          17.35567354       16.64768831       12.34570358
C          19.02893719       18.40136719       12.05704727
C          18.13057745       19.37721184       12.56810273
C          16.80322308       18.98741835       12.94069699
C          16.44705880       17.65926017       12.73493872
C          15.18404894       17.00172290       12.89525057
N          15.28934393       15.62112999       12.59143409
N          13.95656406       17.65502029       13.02908135
H          13.06837596       14.87351688       12.86345273
H          14.66071730       13.71951593       12.94576496
H           9.63140123       20.57985630       13.79613491
H          11.98818115       19.81196008       13.78390429
H          16.10656413       19.70099374       13.38831492
H          18.39910040       20.43005696       12.70469499
H          20.02888562       18.75673896       11.76269411
H          19.47886233       16.27968185       11.62956390
H          19.29975590       12.22520209       12.26842373
H          19.96266882        9.92426387       12.75949866
H          18.24201610        8.09289957       13.18165343
H          15.86083669        8.77275987       13.55981645
H          11.66185862        8.50519333       13.60173682
H           9.28273611        7.87057853       13.80067941
H           7.48364240        9.65886133       13.28733221
H           8.16820422       12.06550272       13.11371768
H           8.31499841       16.45078763       12.98897012
H           7.84593412       18.96248779       13.38497011
C          13.26160877       14.02137213       22.03730002
C          14.66362344       13.93215851       22.37883242
C          15.51640482       15.03552549       22.33067750
C          14.95402702       16.34212271       21.88565896
C          13.55825629       16.46398239       21.62586984
C          12.74049703       15.24322256       21.67976935
C          12.78168014       12.81792063       21.45681351
C          13.93626025       11.89330863       21.39149033
C          15.05909617       12.60486028       22.01868701
C          16.35643869       12.42273350       21.40938760
C          16.81726144       14.91768342       21.66562131
C          15.93153205       17.07951155       21.00993611
C          15.42895869       17.76504073       19.85809513
C          14.00445397       17.88535134       19.56919385
C          13.09572637       17.23882692       20.44559973
C          11.97831283       16.46943828       19.82782800
C          11.73022425       15.30446798       20.63524146
C          11.26566702       14.15528997       20.01624433
C          11.87374927       12.89150088       20.43918232
C          14.04238115       11.07998001       20.30803185
C          13.09439775       11.10070982       19.21956210
C          12.04185738       12.02331886       19.29632258
C          11.55033376       12.78205305       18.14620309
C          11.07319856       14.11099295       18.54084930
C          11.35702421       15.23560570       17.80777142
C          11.78566767       16.45406420       18.40755647
C          12.66283076       17.16394017       17.48598125
C          13.79814847       17.80506560       18.06704696
C          17.01235102       16.10231024       20.84358989
C          16.44080213       15.93379456       16.21462397
C          17.38863459       15.90887749       17.26958019
C          17.93902471       14.58966707       17.67889463
C          17.55730564       13.42996214       17.05969823
C          16.53224807       13.47183268       16.02447151
C          14.56580040       14.79485011       15.39836808
C          14.12626024       16.10973780       15.82469258
C          15.33723053       16.84345726       16.31001996
C          15.13654957       17.67179597       17.45041510
C          16.08863256       17.58725765       18.54318879
C          17.21189029       16.75230541       18.44776562
C          18.11447683       14.61871292       19.10673126
C          17.86332464       13.50556199       19.95420225
C          17.44221956       12.28170109       19.33988131
C          17.27940558       12.23100658       17.94158333
C          16.06207676       11.55906877       17.41279101
C          15.60514789       12.35274409       16.28852793
C          14.24605934       12.35994763       15.98106929
C          13.69472912       13.66766820       15.52288247
C          12.88609570       16.27693949       16.31365545
C          12.01660941       15.10344672       16.53835132
C          12.42451394       13.82394476       16.18860323
C          12.16276122       12.64722817       16.94049870
C          13.30870844       11.76390624       16.83506428
C          13.76785685       10.99616053       17.93910920
C          15.16851023       10.87783476       18.23801256
C          15.36518946       10.92953314       19.69023036
C          16.49967983       11.60949145       20.20637250
C          17.62953360       15.91218732       19.62789854
C          17.24960123       13.58334490       21.24302816
C          15.95740373       14.69143263       15.62826598
176
MD Time 599.45
C          10.81030628       13.15750202       10.14033577
C           8.95276669       11.56425943       10.21566406
C           9.86328237       10.55253285       10.15106928
C          11.30678656       10.71267216       10.08409008
C          11.75950448       12.06055600       10.12009610
C          13.08011243       12.66262940       10.03057338
N          12.99218319       14.08992348       10.04258965
N          14.21304935       11.96372927        9.85533554
N          17.63852764       15.29510769        9.11467167
C          15.38488998       12.54746851        9.58248508
C          16.60795437       11.86103404        9.29512671
C          16.95233324       10.49336149        9.32074131
C          18.33030728       10.24138612        9.20059018
C          19.32453032       11.23135467        8.92456871
C          18.97798208       12.55763561        8.78835088
C          17.61078473       12.85319296        9.12116345
C          17.01373455       14.15394895        9.23226983
N          15.65235413       13.93910057        9.52335412
C          11.57074974       14.40395436       10.05232307
C           9.41439972       12.92362799       10.23900758
C          17.13757611       16.51274120        9.22072367
C          19.23120313       18.04341182        8.60180470
C          13.43814068       18.38627895       10.07344165
C          12.16274566       19.08537666       10.24389097
C          11.79455620       20.44038790       10.24339866
C          10.45724966       20.84246243       10.17161379
C           9.43259730       19.83585384       10.17492880
C           9.72812375       18.52594359       10.22327331
C          11.11420812       18.13137882       10.21248968
C          11.73128466       16.78831711       10.14142036
N          13.13108156       17.03969095       10.00677327
N          11.07211851       15.64668787       10.19862454
C          17.92938035       17.75877988        9.01679550
C          19.69078593       19.34285496        8.77816283
C          18.89757354       20.45490088        9.12216299
C          17.52224279       20.20285382        9.47086361
C          17.10968016       18.83999834        9.42232670
C          15.77380246       18.20086617        9.71177261
N          15.80738196       16.82424595        9.55190303
N          14.66267108       18.94498676        9.96360071
H          13.81526493       16.29061492        9.86740195
H          14.85963915       14.60532171        9.73601666
H          10.24955784       21.90813457       10.25186936
H          12.59979224       21.16001881       10.17642287
H          16.82218719       20.94383813        9.90722444
H          19.28386029       21.47382940        9.10744998
H          20.64320241       19.52195973        8.24813974
H          19.89495234       17.27399336        8.23814393
H          19.59686397       13.46447221        8.52212244
H          20.33226541       10.89245785        8.75853187
H          18.63080775        9.18840709        9.27954097
H          16.13787270        9.77385381        9.53800380
H          11.95334685        9.86853021        9.87244229
H           9.54389814        9.49041837       10.26221474
H           7.86844249       11.31603056       10.23371264
H           8.72510080       13.72350251       10.35898020
H           8.94422119       17.78736521       10.18941898
H           8.37788851       20.20870943       10.19212736
C          10.29703226       11.64743604       13.15453593
C           8.54915101        9.94520197       13.40816010
C           9.54791418        8.95163008       13.55763861
C          10.91924330        9.28646759       13.50954604
C          11.27053608       10.66943896       13.33848800
C          12.53944714       11.42106340       13.26202018
N          12.27127368       12.82884008       13.27362537
N          13.75936312       10.90920633       13.15475608
N          17.28087046       14.23318808       12.28762804
C          14.93482072       11.54163977       13.04821165
C          16.23012358       10.84715228       12.95921722
C          16.58020011        9.51766437       13.20768288
C          17.95846919        9.17659784       12.98730451
C          18.92619910       10.12982575       12.69947109
C          18.53754275       11.47688811       12.54608541
C          17.19543580       11.78082786       12.60151620
C          16.61344829       13.07950580       12.40334275
N          15.23893598       12.90782100       12.71365325
C          10.92062344       13.03937948       13.11642318
C           8.92932727       11.27930911       13.26238434
C          16.65741590       15.43008019       12.33652735
C          18.68730384       17.01059764       11.99122049
C          12.78076685       17.02552462       13.06866781
C          11.49774997       17.73448994       13.26725230
C          11.23034790       19.10755717       13.48576138
C           9.90220379       19.52173491       13.66448598
C           8.85295734       18.54888279       13.37419226
C           9.09560280       17.20198556       13.14809344
C          10.46306453       16.77236397       13.21171986
C          10.99279474       15.42057922       13.02191617
N          12.39791492       15.63834230       12.95689404
N          10.31256827       14.25819590       13.03729136
C          17.35429339       16.64831199       12.34950519
C          19.02756868       18.40119613       12.05985928
C          18.12956443       19.37592107       12.57065351
C          16.80130754       18.98886571       12.94025834
C          16.44850452       17.65907811       12.73826838
C          15.18586007       16.99795882       12.89603060
N          15.29413193       15.62374480       12.59104756
N          13.95538284       17.65808436       13.02986282
H          13.07596851       14.86489056       12.86485358
H          14.65958216       13.71416259       12.94708799
H           9.63868828       20.58050485       13.81073289
H          11.99635896       19.81952469       13.77674464
H          16.10225360       19.69969413       13.38581641
H          18.40401369       20.43011160       12.69634122
H          20.02083494       18.76494622       11.76833205
H          19.47495167       16.28114682       11.63068929
H          19.29358050       12.22392175       12.26189769
H          19.97069130        9.91496505       12.75929762
H          18.23910770        8.09304962       13.18895365
H          15.86000765        8.76906971       13.55043565
H          11.66572453        8.50522228       13.60560596
H           9.28371861        7.86908183       13.78593635
H           7.48641515        9.65847820       13.29467143
H           8.15825351       12.06160375       13.11195346
H           8.31617773       16.45214259       12.99342017
H           7.84339329       18.96228752       13.38482976
C          13.25552461       14.02092852       22.03718698
C          14.66591931       13.92982019       22.38085035
C          15.52084809       15.03220807       22.33399461
C          14.95489220       16.34804609       21.88747193
C          13.56042248       16.46919520       21.62404636
C          12.74083161       15.24124668       21.68067735
C          12.77781679       12.81634318       21.45790264
C          13.93425492       11.89264360       21.39040985
C          15.06348958       12.60148880       22.01706553
C          16.35644402       12.42317076       21.40906216
C          16.81566550       14.91363284       21.66607736
C          15.92989012       17.08279796       21.01179985
C          15.42713517       17.76455491       19.86042208
C          14.00263028       17.88552967       19.56580988
C          13.09767243       17.24019119       20.45041876
C          11.97820334       16.47097633       19.82918248
C          11.72989035       15.30485975       20.63440248
C          11.26601401       14.15356442       20.01253057
C          11.87694141       12.88590826       20.43611059
C          14.03995593       11.07939657       20.30896129
C          13.09559657       11.10049445       19.21655891
C          12.04357841       12.02070114       19.29886894
C          11.55247231       12.78259598       18.14760839
C          11.07104788       14.11146374       18.53958520
C          11.36046781       15.23269708       17.81149180
C          11.78574737       16.46158757       18.41141148
C          12.66000086       17.15980482       17.49025055
C          13.79928328       17.80618709       18.06443123
C          17.01194039       16.10024789       20.84753900
C          16.44172830       15.93536489       16.21701540
C          17.39429018       15.90208475       17.27396420
C          17.93907212       14.59318052       17.67447901
C          17.55863791       13.42746941       17.06052804
C          16.53100833       13.47453482       16.02840640
C          14.56400374       14.79675132       15.40038508
C          14.12781574       16.11370533       15.82949386
C          15.33535447       16.84285347       16.31076146
C          15.13426154       17.67062744       17.45057877
C          16.08529517       17.58814145       18.54321014
C          17.21077470       16.75324604       18.44865611
C          18.11332327       14.61967947       19.10896201
C          17.86353288       13.50267160       19.95420075
C          17.43883951       12.28011780       19.34100147
C          17.27920437       12.23165314       17.93904208
C          16.06732304       11.56365171       17.41159943
C          15.60324614       12.35745236       16.28882049
C          14.24818857       12.36337365       15.98463928
C          13.69621895       13.67115888       15.52415148
C          12.88651212       16.27725040       16.31124310
C          12.01925994       15.10303133       16.53488851
C          12.42516623       13.82803733       16.19107591
C          12.16071008       12.64304016       16.94083540
C          13.31238091       11.76086199       16.83331932
C          13.76787018       10.99776181       17.93994892
C          15.16637938       10.87787507       18.23501943
C          15.36395929       10.93022467       19.69065202
C          16.50421959       11.60655524       20.20560755
C          17.62867562       15.91184842       19.62689530
C          17.24667700       13.58418460       21.24515653
C          15.96209458       14.69045318       15.63038678
176
MD Time 620.12
C          10.81183182       13.15805555       10.13774022
C           8.95217442       11.56408362       10.21136673
C           9.86435227       10.55026281       10.14981195
C          11.30763075       10.71265613       10.08642975
C          11.76250206       12.06446051       10.12176193
C          13.08304707       12.66596068       10.03245838
N          12.99295723       14.08925047       10.04124493
N          14.21559935       11.96164595        9.85640867
N          17.63773459       15.29870185        9.11218837
C          15.38586679       12.54876030        9.58001452
C          16.60778682       11.86103207        9.28770600
C          16.95159975       10.49409299        9.32003342
C          18.33065235       10.24046036        9.19918446
C          19.32051254       11.22967587        8.92602977
C          18.97355332       12.55504324        8.78183774
C          17.61240073       12.85548389        9.11767922
C          17.01373076       14.15384806        9.23035037
N          15.65000344       13.94070688        9.52299475
C          11.57062722       14.40927485       10.05128428
C           9.41631707       12.92257033       10.23718585
C          17.13867197       16.51468031        9.21637360
C          19.23009832       18.04459922        8.60121944
C          13.43409770       18.38467143       10.07418383
C          12.16299456       19.08090362       10.24335810
C          11.79459776       20.43848724       10.24598559
C          10.45865439       20.84826324       10.17147616
C           9.42942448       19.83543866       10.17659280
C           9.73160578       18.52841510       10.22150446
C          11.11497717       18.12953305       10.21476599
C          11.73233241       16.78469182       10.13973628
N          13.13081628       17.04183043       10.00886442
N          11.06909618       15.64790733       10.19862919
C          17.92820332       17.75872189        9.01601773
C          19.69104939       19.34688062        8.77896061
C          18.89782156       20.45185822        9.12105953
C          17.52507749       20.20369909        9.46865647
C          17.11087003       18.83947831        9.42182939
C          15.77644619       18.20230759        9.71346027
N          15.80708853       16.82541755        9.54874025
N          14.66335513       18.94684564        9.96781249
H          13.81643031       16.29769874        9.85841361
H          14.87406257       14.60628093        9.71824530
H          10.24181192       21.91302694       10.26381438
H          12.60712149       21.15912600       10.18480951
H          16.82612558       20.94460179        9.90611186
H          19.27938615       21.47545976        9.10311868
H          20.64702452       19.51750614        8.24823671
H          19.88999608       17.25616650        8.23616154
H          19.58760880       13.45727523        8.53067096
H          20.33720200       10.88194861        8.75142834
H          18.64367610        9.19667584        9.28051089
H          16.13659327        9.77331942        9.53566079
H          11.95830308        9.86087127        9.86724828
H           9.54854089        9.48996149       10.25327849
H           7.87116453       11.31866306       10.23019410
H           8.70380328       13.73324113       10.35270303
H           8.93730138       17.78710262       10.19471524
H           8.36847125       20.21364447       10.19421413
C          10.30079281       11.64800684       13.15244142
C           8.54882150        9.94605084       13.40457516
C           9.54274714        8.95045689       13.55562433
C          10.91865162        9.28559606       13.50836103
C          11.26816389       10.66768280       13.33996985
C          12.54099110       11.42172970       13.26216207
N          12.27425361       12.82968679       13.27170075
N          13.75967822       10.90764139       13.15618957
N          17.28262469       14.23469526       12.28531837
C          14.93300150       11.54365887       13.04603360
C          16.22974031       10.85148673       12.95824923
C          16.58224796        9.52158328       13.20820511
C          17.95522130        9.17393870       12.98589984
C          18.92985146       10.12993750       12.70441252
C          18.53545582       11.47468835       12.54369597
C          17.19353677       11.77637478       12.60071200
C          16.61505159       13.07905750       12.40473065
N          15.23764692       12.90736779       12.71353441
C          10.91853030       13.04047275       13.11264288
C           8.92780342       11.27951726       13.26347242
C          16.65678933       15.42970434       12.33684046
C          18.68953122       17.00957517       11.99275716
C          12.78164874       17.02652964       13.06868284
C          11.50033537       17.73668983       13.26729419
C          11.22803175       19.10357594       13.48647576
C           9.90233970       19.51960562       13.66390520
C           8.85373398       18.54926295       13.37566962
C           9.09776590       17.20353164       13.14476046
C          10.46407339       16.77224482       13.21486494
C          10.98974448       15.42271286       13.01979357
N          12.39871581       15.63744176       12.95776804
N          10.31077700       14.25922137       13.03545334
C          17.35346877       16.64931822       12.35319110
C          19.02619190       18.40099012       12.06276894
C          18.12833424       19.37450316       12.57325076
C          16.79964918       18.99040557       12.93975790
C          16.44988580       17.65898732       12.74169326
C          15.18710126       16.99408440       12.89662087
N          15.29892072       15.62647846       12.59076423
N          13.95443831       17.66094148       13.03071295
H          13.08264877       14.85715175       12.86617400
H          14.65787029       13.70921217       12.94729405
H           9.64621457       20.58036268       13.82573162
H          12.00600591       19.82703990       13.76837581
H          16.09769342       19.69842762       13.38286675
H          18.40949366       20.42974557       12.68764077
H          20.01265911       18.77232437       11.77382441
H          19.46835950       16.28402790       11.63275946
H          19.28662799       12.22271259       12.25594990
H          19.98082309        9.90451043       12.75837035
H          18.23588663        8.09617894       13.19550830
H          15.85912082        8.76564797       13.54072177
H          11.67042195        8.50523145       13.60967032
H           9.28498604        7.87057669       13.77003329
H           7.49009943        9.65836796       13.30300496
H           8.14911601       12.05694924       13.11059403
H           8.31715498       16.45381071       12.99783657
H           7.84018021       18.96146731       13.38451110
C          13.24952314       14.02068430       22.03737547
C          14.66807972       13.92738595       22.38300036
C          15.52527723       15.02919966       22.33707768
C          14.95567479       16.35405051       21.88925081
C          13.56274256       16.47431234       21.62209421
C          12.74102711       15.23954850       21.68155866
C          12.77424893       12.81459871       21.45916996
C          13.93202529       11.89233339       21.38971383
C          15.06825008       12.59788561       22.01514147
C          16.35633941       12.42376441       21.40882119
C          16.81399458       14.90925883       21.66664086
C          15.92798208       17.08577301       21.01364434
C          15.42537825       17.76399279       19.86263883
C          14.00072204       17.88558657       19.56238607
C          13.09954743       17.24141183       20.45504966
C          11.97816608       16.47282799       19.83043855
C          11.72954611       15.30532724       20.63350997
C          11.26642254       14.15167279       20.00873546
C          11.87982445       12.88030989       20.43288557
C          14.03789376       11.07853615       20.30958925
C          13.09652889       11.10043953       19.21353437
C          12.04505003       12.01813337       19.30136386
C          11.55440835       12.78311504       18.14919945
C          11.06891986       14.11159189       18.53886822
C          11.36384101       15.22993641       17.81499516
C          11.78576658       16.46918125       18.41559360
C          12.65753084       17.15572060       17.49466231
C          13.80040389       17.80729892       18.06192037
C          17.01165019       16.09812654       20.85153218
C          16.44281519       15.93695877       16.21953124
C          17.39986604       15.89523111       17.27820598
C          17.93920603       14.59700587       17.67022286
C          17.55978318       13.42460197       17.06144492
C          16.52960401       13.47708342       16.03240568
C          14.56191511       14.79847904       15.40234294
C          14.12991067       16.11765124       15.83397929
C          15.33311592       16.84231456       16.31162905
C          15.13191577       17.66938537       17.45081129
C          16.08212297       17.58908167       18.54337243
C          17.20970226       16.75391872       18.44961659
C          18.11205852       14.62075034       19.11159203
C          17.86392400       13.49985103       19.95400153
C          17.43549561       12.27841294       19.34180575
C          17.27888675       12.23232979       17.93641503
C          16.07284654       11.56836431       17.41033819
C          15.60156370       12.36196096       16.28902427
C          14.25049393       12.36725972       15.98789774
C          13.69793974       13.67468363       15.52548854
C          12.88635488       16.27763505       16.30925178
C          12.02186460       15.10268706       16.53140558
C          12.42592516       13.83221352       16.19312328
C          12.15874785       12.63873278       16.94107440
C          13.31594771       11.75752043       16.83178627
C          13.76775952       10.99935266       17.94073848
C          15.16442434       10.87798302       18.23205055
C          15.36287198       10.93093603       19.69102147
C          16.50852007       11.60347807       20.20492986
C          17.62795958       15.91171951       19.62547303
C          17.24359000       13.58546251       21.24740563
C          15.96705290       14.68942816       15.63253211
176
MD Time 640.79
C          10.81320483       13.15849338       10.13518224
C           8.95145523       11.56431205       10.20709290
C           9.86592823       10.54747545       10.14855846
C          11.30817979       10.71298535       10.08872059
C          11.76532615       12.06824423       10.12333240
C          13.08591698       12.66956913       10.03432115
N          12.99351765       14.08848301       10.03984059
N          14.21815743       11.95955468        9.85744625
N          17.63717999       15.30233730        9.10960424
C          15.38670198       12.55017251        9.57755832
C          16.60777797       11.86103433        9.28039753
C          16.95088889       10.49497983        9.31938069
C          18.33091724       10.23935999        9.19776673
C          19.31650899       11.22781534        8.92739961
C          18.96883775       12.55278350        8.77548348
C          17.61420469       12.85772211        9.11400569
C          17.01344409       14.15368770        9.22849634
N          15.64761736       13.94217814        9.52262806
C          11.57094504       14.41442213       10.05045701
C           9.41830423       12.92132953       10.23528843
C          17.13963093       16.51681022        9.21196463
C          19.22893363       18.04561587        8.60080774
C          13.43021154       18.38319514       10.07493241
C          12.16306313       19.07649382       10.24272786
C          11.79477840       20.43667015       10.24846608
C          10.46008918       20.85383846       10.17148654
C           9.42607045       19.83582499       10.17828812
C           9.73539953       18.53035544       10.21968760
C          11.11562866       18.12750342       10.21708073
C          11.73342351       16.78139797       10.13803263
N          13.13036047       17.04377068       10.01095565
N          11.06600340       15.64902649       10.19849464
C          17.92702233       17.75868421        9.01531900
C          19.69157056       19.35101630        8.77930264
C          18.89771508       20.44874180        9.12007883
C          17.52801293       20.20432710        9.46652765
C          17.11180058       18.83901724        9.42138862
C          15.77904248       18.20388761        9.71508082
N          15.80692173       16.82666467        9.54560122
N          14.66397215       18.94864932        9.97202746
H          13.81824460       16.30512102        9.84978264
H          14.88969587       14.60684833        9.70032487
H          10.23344223       21.91799131       10.27506014
H          12.61467645       21.15908514       10.19366621
H          16.83099152       20.94501925        9.90371672
H          19.27526054       21.47692182        9.09896716
H          20.65107186       19.51378914        8.25012183
H          19.88521279       17.23829773        8.23410351
H          19.57842246       13.44760473        8.53975973
H          20.34267294       10.87147085        8.74440325
H          18.65703937        9.20484935        9.28150336
H          16.13708656        9.77282217        9.53286819
H          11.96343522        9.85350548        9.86316328
H           9.55278242        9.49075822       10.24351663
H           7.87503581       11.32200906       10.22703979
H           8.68248642       13.74372146       10.34606839
H           8.93055618       17.78602065       10.20019686
H           8.36108817       20.21718295       10.19603874
C          10.30395842       11.64882536       13.15054517
C           8.54849505        9.94678553       13.40095530
C           9.53768636        8.94910415       13.55367007
C          10.91797105        9.28495288       13.50716364
C          11.26600099       10.66578417       13.34135847
C          12.54248479       11.42266594       13.26233342
N          12.27735094       12.83045746       13.26963196
N          13.76008647       10.90602618       13.15774893
N          17.28432776       14.23611931       12.28289824
C          14.93128314       11.54574727       13.04364176
C          16.22900742       10.85565272       12.95738406
C          16.58450390        9.52541657       13.20861126
C          17.95176186        9.17092010       12.98474434
C          18.93341955       10.13025339       12.70942441
C          18.53367042       11.47233937       12.54115555
C          17.19187865       11.77221534       12.59979012
C          16.61642924       13.07865145       12.40639657
N          15.23638306       12.90676587       12.71348090
C          10.91657993       13.04124359       13.10896483
C           8.92629687       11.27997590       13.26438611
C          16.65604035       15.42897939       12.33725226
C          18.69177236       17.00867083       11.99429980
C          12.78230600       17.02745850       13.06876027
C          11.50301522       17.73880562       13.26733906
C          11.22572600       19.09968845       13.48745392
C           9.90233231       19.51720418       13.66305158
C           8.85454198       18.54998623       13.37726475
C           9.10018906       17.20497607       13.14157393
C          10.46469813       16.77215028       13.21780359
C          10.98695295       15.42495199       13.01780378
N          12.39966405       15.63651515       12.95864398
N          10.30902648       14.26022475       13.03364002
C          17.35323455       16.65069348       12.35674741
C          19.02478950       18.40073607       12.06578001
C          18.12689110       19.37297824       12.57588676
C          16.79824751       18.99202775       12.93920115
C          16.45118634       17.65898963       12.74521283
C          15.18776658       16.99015358       12.89702930
N          15.30367051       15.62930356       12.59058555
N          13.95375363       17.66357239       13.03162814
H          13.08783530       14.85090335       12.86747799
H          14.65543426       13.70493096       12.94643902
H           9.65394534       20.57922998       13.84099794
H          12.01625739       19.83376589       13.75860034
H          16.09286227       19.69727334       13.37948900
H          18.41541506       20.42885565       12.67866424
H          20.00472443       18.77889806       11.77904534
H          19.45952642       16.28796230       11.63559236
H          19.27901251       12.22166923       12.25055729
H          19.99230541        9.89317609       12.75672581
H          18.23237566        8.10201312       13.20128402
H          15.85833764        8.76276614       13.53065130
H          11.67569262        8.50539885       13.61386976
H           9.28634985        7.87469368       13.75315498
H           7.49432714        9.65849419       13.31221152
H           8.14101248       12.05151323       13.10968025
H           8.31792632       16.45576993       13.00215435
H           7.83656001       18.95995253       13.38403974
C          13.24367349       14.02060915       22.03788670
C          14.67008128       13.92485663       22.38526798
C          15.52964153       15.02651777       22.33992729
C          14.95638262       16.36010037       21.89100545
C          13.56520778       16.47928910       21.62004693
C          12.74107082       15.23817356       21.68238992
C          12.77099712       12.81268627       21.46061944
C          13.92958871       11.89237789       21.38941017
C          15.07330951       12.59408228       22.01293337
C          16.35614792       12.42449632       21.40864962
C          16.81225614       14.90460243       21.66731297
C          15.92583591       17.08840913       21.01548006
C          15.42367966       17.76336918       19.86471121
C          13.99874592       17.88552186       19.55895590
C          13.10133243       17.24250305       20.45944422
C          11.97820958       16.47499572       19.83162451
C          11.72919058       15.30584485       20.63256272
C          11.26690523       14.14962773       20.00489579
C          11.88236979       12.87475687       20.42953053
C          14.03620268       11.07739581       20.30990246
C          13.09719197       11.10053634       19.21052291
C          12.04626083       12.01561639       19.30376003
C          11.55614316       12.78358909       18.15096077
C          11.06682453       14.11135800       18.53870427
C          11.36715731       15.22739214       17.81824901
C          11.78569173       16.47675562       18.42007154
C          12.65546584       17.15172754       17.49917532
C          13.80147261       17.80839113       18.05953113
C          17.01148645       16.09596347       20.85552447
C          16.44407702       15.93855032       16.22217389
C          17.40529456       15.88840761       17.28225520
C          17.93945105       14.60105948       17.66618850
C          17.56074606       13.42140849       17.06243924
C          16.52806032       13.47945583       16.03646538
C          14.55959790       14.80004520       15.40424561
C          14.13253199       16.12154066       15.83812230
C          15.33055017       16.84184695       16.31263250
C          15.12952504       17.66807839       17.45111214
C          16.07914408       17.59006129       18.54368107
C          17.20867440       16.75431568       18.45064614
C          18.11068721       14.62190429       19.11458005
C          17.86448511       13.49712667       19.95362402
C          17.43221819       12.27660288       19.34226580
C          17.27847028       12.23303263       17.93373922
C          16.07857016       11.57316402       17.40901614
C          15.60014151       12.36625498       16.28915628
C          14.25294602       12.37160023       15.99083123
C          13.69986812       13.67822920       15.52690390
C          12.88560977       16.27810547       16.30770888
C          12.02438685       15.10245453       16.52796060
C          12.42680598       13.83638563       16.19473940
C          12.15689832       12.63434184       16.94119775
C          13.31936711       11.75391559       16.83046454
C          13.76754197       11.00092100       17.94145408
C          15.16269860       10.87817648       18.22912512
C          15.36193939       10.93166480       19.69131899
C          16.51253874       11.60025562       20.20435613
C          17.62736329       15.91180807       19.62369427
C          17.24037058       13.58713856       21.24973723
C          15.97221215       14.68841509       15.63468760
176
MD Time 661.46
C          10.81442749       13.15884129       10.13266830
C           8.95066480       11.56492467       10.20284760
C           9.86799869       10.54423037       10.14730337
C          11.30848185       10.71362667       10.09094512
C          11.76796314       12.07187047       10.12480692
C          13.08871433       12.67343267       10.03615804
N          12.99387053       14.08764931       10.03837799
N          14.22071611       11.95747395        9.85844823
N          17.63686051       15.30596821        9.10691835
C          15.38738391       12.55169119        9.57511910
C          16.60792630       11.86106162        9.27321565
C          16.95020957       10.49600763        9.31877354
C          18.33108342       10.23811136        9.19634500
C          19.31260909       11.22576224        8.92864486
C          18.96383681       12.55081273        8.76931506
C          17.61615072       12.85988529        9.11014379
C          17.01288387       14.15351088        9.22670355
N          15.64530760       13.94344185        9.52222113
C          11.57169455       14.41933124       10.04983764
C           9.42024741       12.92001134       10.23332198
C          17.14042999       16.51912999        9.20750666
C          19.22775107       18.04641659        8.60054928
C          13.42654200       18.38187758       10.07568791
C          12.16293180       19.07219475       10.24200882
C          11.79512306       20.43496977       10.25083690
C          10.46152457       20.85915888       10.17165717
C           9.42255546       19.83704328       10.18000807
C           9.73942391       18.53172278       10.21783342
C          11.11616489       18.12528384       10.21941971
C          11.73454521       16.77848035       10.13632106
N          13.12971768       17.04548202       10.01303699
N          11.06284878       15.65004015       10.19821832
C          17.92585759       17.75868153        9.01469151
C          19.69237369       19.35518176        8.77917085
C          18.89726374       20.44562167        9.11922054
C          17.53102551       20.20471137        9.46448254
C          17.11246976       18.83863868        9.42101078
C          15.78155697       18.20560517        9.71663616
N          15.80688551       16.82799071        9.54248654
N          14.66450970       18.95038282        9.97624201
H          13.82076906       16.31276498        9.84156121
H          14.90538524       14.60796195        9.68262807
H          10.22464518       21.92285448       10.28555320
H          12.62207351       21.15953945       10.20299598
H          16.83671780       20.94516286        9.90007595
H          19.27144943       21.47799550        9.09501320
H          20.65523717       19.51089405        8.25383394
H          19.88016749       17.22122481        8.23227463
H          19.56985909       13.43611814        8.54908260
H          20.34773155       10.86144682        8.73767175
H          18.67080122        9.21249966        9.28256334
H          16.13930548        9.77238068        9.52965688
H          11.96829898        9.84707001        9.86036612
H           9.55649702        9.49247532       10.23300590
H           7.87968356       11.32596285       10.22422504
H           8.66251100       13.75360016       10.33891907
H           8.92460322       17.78459754       10.20583249
H           8.35605559       20.21916417       10.19761032
C          10.30647043       11.64988796       13.14884932
C           8.54819109        9.94740414       13.39731846
C           9.53279565        8.94761867       13.55175369
C          10.91719126        9.28451116       13.50596364
C          11.26407989       10.66376599       13.34264922
C          12.54390996       11.42386172       13.26253654
N          12.28054338       12.83115126       13.26741657
N          13.76058781       10.90436563       13.15943116
N          17.28596910       14.23743632       12.28037562
C          14.92967686       11.54789152       13.04104387
C          16.22790343       10.85959600       12.95663638
C          16.58692408        9.52913635       13.20890055
C          17.94813742        9.16761698       12.98383770
C          18.93692635       10.13072551       12.71449792
C          18.53220183       11.46982500       12.53847463
C          17.19047929       11.76840810       12.59873914
C          16.61758095       13.07829355       12.40832825
N          15.23516086       12.90601358       12.71348743
C          10.91480563       13.04169497       13.10539575
C           8.92482858       11.28069369       13.26511440
C          16.65520571       15.42793542       12.33775721
C          18.69396416       17.00792621       11.99587435
C          12.78274015       17.02830379       13.06889976
C          11.50576738       17.74079016       13.26738528
C          11.22351464       19.09597542       13.48870255
C           9.90217789       19.51456183       13.66194938
C           8.85535348       18.55105048       13.37896833
C           9.10286374       17.20631752       13.13854855
C          10.46494713       16.77209923       13.22052323
C          10.98444526       15.42727413       13.01595430
N          12.40077301       15.63554611       12.95951674
N          10.30731799       14.26120387       13.03184954
C          17.35361365       16.65241854       12.36016363
C          19.02334453       18.40042053       12.06889660
C          18.12524375       19.37136632       12.57855301
C          16.79709618       18.99372204       12.93859475
C          16.45239119       17.65908498       12.74882645
C          15.18785926       16.98622075       12.89726427
N          15.30834221       15.63219032       12.59051216
N          13.95334620       17.66595972       13.03260512
H          13.09111177       14.84657162       12.86880921
H          14.65217078       13.70152040       12.94456617
H           9.66183493       20.57694773       13.85640001
H          12.02631763       19.83904933       13.74728157
H          16.08775213       19.69630248       13.37570041
H          18.42164727       20.42735285       12.66948634
H          19.99738505       18.78470861       11.78387664
H          19.44903973       16.29245869       11.63893714
H          19.27088828       12.22090954       12.24567853
H          20.00427542        9.88127445       12.75437946
H          18.22864167        8.11007550       13.20629587
H          15.85780070        8.76066797       13.52021467
H          11.68124836        8.50592460       13.61813868
H           9.28758640        7.88085952       13.73551530
H           7.49867639        9.65880355       13.32216815
H           8.13407889       12.04534692       13.10923602
H           8.31849801       16.45800107       13.00631305
H           7.83280101       18.95768234       13.38344589
C          13.23803759       14.02067178       22.03873910
C          14.67190749       13.92223543       22.38763991
C          15.53388947       15.02417248       22.34254780
C          14.95702392       16.36616283       21.89274585
C          13.56780834       16.48408380       21.61793767
C          12.74095145       15.23716270       21.68314946
C          12.76807438       12.81060837       21.46225153
C          13.92696584       11.89276738       21.38949714
C          15.07859576       12.59011282       22.01046344
C          16.35589617       12.42534723       21.40852965
C          16.81045784       14.89970984       21.66809362
C          15.92348081       17.09068174       21.01731618
C          15.42203026       17.76269824       19.86660736
C          13.99671884       17.88533587       19.55555191
C          13.10301051       17.24348137       20.46355608
C          11.97834040       16.47747847       19.83277132
C          11.72882294       15.30638837       20.63155884
C          11.26747424       14.14744388       20.00104951
C          11.88455574       12.86929705       20.42607579
C          14.03488474       11.07597893       20.30989569
C          13.09758709       11.10077416       19.20755836
C          12.04720059       12.01314878       19.30601148
C          11.55768011       12.78399673       18.15287224
C          11.06477185       14.11075034       18.53909055
C          11.37042676       15.22512319       17.82122854
C          11.78549062       16.48422699       18.42481317
C          12.65384573       17.14786274       17.50374939
C          13.80245439       17.80945500       18.05727943
C          17.01145452       16.09377522       20.85947177
C          16.44552457       15.94011439       16.22494370
C          17.41051041       15.88170836       17.28606439
C          17.93983236       14.60524682       17.66243375
C          17.56153412       13.41794403       17.06350246
C          16.52640451       13.48163056       16.04058344
C          14.55711970       14.80146567       15.40609700
C          14.13564870       16.12534161       15.84190317
C          15.32769717       16.84145555       16.31378101
C          15.12710181       17.66671563       17.45148191
C          16.07638488       17.59106310       18.54414044
C          17.20769127       16.75443204       18.45174308
C          18.10921517       14.62312122       19.11788242
C          17.86520140       13.49452184       19.95309015
C          17.42903607       12.27470473       19.34235906
C          17.27797446       12.23375799       17.93105087
C          16.08441549       11.57800693       17.40764099
C          15.59901723       12.37032220       16.28923201
C          14.25551346       12.37638397       15.99343290
C          13.70197899       13.68178210       15.52840733
C          12.88427900       16.27867303       16.30663300
C          12.02679129       15.10237395       16.52460902
C          12.42782262       13.84046665       16.19592076
C          12.15518187       12.62990276       16.94119146
C          13.32260293       11.75008501       16.82934644
C          13.76723640       11.00245469       17.94207403
C          15.16125269       10.87847267       18.22626040
C          15.36117093       10.93240770       19.69152491
C          16.51623929       11.59688596       20.20390220
C          17.62686343       15.91212072       19.62162623
C          17.23704973       13.58916667       21.25211113
C          15.97750672       14.68747151       15.63683900
176
MD Time 682.13
C          10.81550539       13.15912441       10.13020371
C           8.94986931       11.56589580       10.19863440
C           9.87054521       10.54060115       10.14604049
C          11.30858277       10.71454822       10.09308825
C          11.77040131       12.07530901       10.12618570
C          13.09143186       12.67752593       10.03796591
N          12.99402399       14.08677818       10.03685857
N          14.22326767       11.95542258        9.85941497
N          17.63677020       15.30955039        9.10412970
C          15.38790349       12.55330062        9.57269836
C          16.60822847       11.86113471        9.26617269
C          16.94957593       10.49716524        9.31820110
C          18.33113582       10.23673779        9.19492638
C          19.30888806       11.22351250        8.92973405
C          18.95855026       12.54907033        8.76335787
C          17.61818932       12.86195457        9.10609496
C          17.01206351       14.15336059        9.22496623
N          15.64319010       13.94442075        9.52174270
C          11.57286312       14.42394180       10.04942177
C           9.42205070       12.91870162       10.23128881
C          17.14104864       16.52163610        9.20300816
C          19.22658813       18.04696531        8.60042591
C          13.42314237       18.38074340       10.07645153
C          12.16258397       19.06805297       10.24120942
C          11.79565482       20.43341675       10.25309693
C          10.46293184       20.86420332       10.17199968
C           9.41891527       19.83909736       10.18174637
C           9.74359941       18.53249637       10.21595287
C          11.11658931       18.12286982       10.22176926
C          11.73568440       16.77597527       10.13461249
N          13.12889504       17.04693696       10.01509890
N          11.05964150       15.65094499       10.19779789
C          17.92472760       17.75872948        9.01412775
C          19.69347471       19.35929832        8.77855351
C          18.89648164       20.44256370        9.11848206
C          17.53409378       20.20482388        9.46252362
C          17.11287786       18.83836416        9.42070132
C          15.78395708       18.20745897        9.71812871
N          15.80698252       16.82939949        9.53939605
N          14.66495736       18.95203296        9.98045335
H          13.82403294       16.32053115        9.83380024
H          14.91989723       14.61064518        9.66549952
H          10.21562798       21.92742798       10.29524311
H          12.62894256       21.16013805       10.21279231
H          16.84318496       20.94515490        9.89526290
H          19.26791370       21.47847739        9.09127765
H          20.65947181       19.50890262        8.25936491
H          19.87450159       17.20569357        8.23093985
H          19.56253976       13.42359674        8.55832552
H          20.35155212       10.85225690        8.73143402
H          18.68485334        9.21924478        9.28373452
H          16.14312581        9.77196213        9.52607603
H          11.97251235        9.84212112        9.85901330
H           9.55955194        9.49469054       10.22182637
H           7.88465700       11.33040027       10.22172431
H           8.64502105       13.76178550       10.33115228
H           8.91999553       17.78325713       10.21157940
H           8.35349492       20.21951593       10.19894198
C          10.30828323       11.65118723       13.14735539
C           8.54793260        9.94790763       13.39368143
C           9.52813587        8.94606259       13.54985036
C          10.91630606        9.28424283       13.50477058
C          11.26242579       10.66165564       13.34383767
C          12.54525170       11.42530416       13.26277353
N          12.28380979       12.83176736       13.26505194
N          13.76118121       10.90266548       13.16123357
N          17.28753818       14.23862357       12.27775811
C          14.92819078       11.55007638       13.03824840
C          16.22641422       10.86326853       12.95601808
C          16.58946439        9.53271898       13.20907164
C          17.94439289        9.16411978       12.98317474
C          18.94039662       10.13130214       12.71962423
C          18.53105977       11.46713051       12.53566391
C          17.18935202       11.76500387       12.59754975
C          16.61850919       13.07798830       12.41051291
N          15.23399137       12.90511691       12.71354992
C          10.91323621       13.04183412       13.10194085
C           8.92342040       11.28167009       13.26564909
C          16.65432552       15.42660946       12.33834986
C          18.69603723       17.00739105       11.99751113
C          12.78295637       17.02905915       13.06910072
C          11.50856876       17.74259941       13.26743183
C          11.22147179       19.09250291       13.49022109
C           9.90187532       19.51170954       13.66062415
C           8.85614206       18.55244614       13.38076985
C           9.10577680       17.20755843       13.13569746
C          10.46483508       16.77210848       13.22301305
C          10.98224223       15.42965531       13.01425141
N          12.40204339       15.63453202       12.96038323
N          10.30565373       14.26215667       13.03007988
C          17.35461713       16.65446955       12.36343271
C          19.02184286       18.40003084       12.07212252
C          18.12340511       19.36968643       12.58124018
C          16.79618293       18.99547852       12.93794667
C          16.45348710       17.65927155       12.75253342
C          15.18739069       16.98234015       12.89733450
N          15.31289792       15.63510708       12.59054399
N          13.95322783       17.66808756       13.03364101
H          13.09224046       14.84439271       12.87019011
H          14.64803757       13.69909432       12.94169766
H           9.66982544       20.57340931       13.87181172
H          12.03550628       19.84236518       13.73435348
H          16.08237204       19.69557385       13.37150960
H          18.42805849       20.42517023       12.66018534
H          19.99095332       18.78980215       11.78821639
H          19.43760501       16.29691923       11.64248523
H          19.26243905       12.22056476       12.24125819
H          20.01586160        9.86913236       12.75135833
H          18.22479518        8.11970039       13.21060882
H          15.85761915        8.75955200       13.50942137
H          11.68679435        8.50700766       13.62240915
H           9.28844473        7.88831737       13.71734539
H           7.50270627        9.65923401       13.33275612
H           8.12836369       12.03857757       13.10926778
H           8.31888700       16.46048891       13.01025701
H           7.82915329       18.95461679       13.38276395
C          13.23266983       14.02084117       22.03994826
C          14.67354820       13.91952786       22.39010418
C          15.53796921       15.02216725       22.34494689
C          14.95760717       16.37220759       21.89448225
C          13.57053326       16.48865814       21.61579861
C          12.74065957       15.23655113       21.68381781
C          12.76548646       12.80837085       21.46406326
C          13.92418029       11.89348296       21.38996387
C          15.08403361       12.58601299       22.00775711
C          16.35561397       12.42629704       21.40844095
C          16.80860730       14.89463195       21.66898176
C          15.92094673       17.09256945       21.01916020
C          15.42042049       17.76199323       19.86829827
C          13.99465770       17.88502943       19.55220536
C          13.10456679       17.24436509       20.46734128
C          11.97856298       16.48027186       19.83391200
C          11.72844262       15.30693571       20.63049594
C          11.26814116       14.14513723       19.99723543
C          11.88636732       12.86397486       20.42255831
C          14.03393657       11.07429498       20.30957153
C          13.09771936       11.10114046       19.20467328
C          12.04786007       12.01072711       19.30807413
C          11.55902437       12.78431655       18.15490946
C          11.06277187       14.10976516       18.54001563
C          11.37365553       15.22317767       17.82391691
C          11.78513321       16.49151906       18.42978568
C          12.65270461       17.14415972       17.50834621
C          13.80331728       17.81048314       18.05518030
C          17.01155876       16.09157749       20.86333184
C          16.44716509       15.94162708       16.22783910
C          17.41545106       15.87522940       17.28958929
C          17.94037563       14.60946466       17.65901185
C          17.56215745       13.41426856       17.06462701
C          16.52466535       13.48358798       16.04475939
C          14.55455077       14.80276021       15.40790083
C          14.13921269       16.12902487       15.84530851
C          15.32460107       16.84114398       16.31508329
C          15.12465818       17.66530659       17.45192245
C          16.07386972       17.59206999       18.54475379
C          17.20675172       16.75426567       18.45290500
C          18.10764926       14.62438231       19.12145416
C          17.86605660       13.49205667       19.95242343
C          17.42597618       12.27273588       19.34206902
C          17.27742053       12.23450242       17.92838517
C          16.09030401       11.58284831       17.40621911
C          15.59822460       12.37415290       16.28926510
C          14.25816377       12.38159455       15.99570210
C          13.70424605       13.68532863       15.53000803
C          12.88238059       16.27934857       16.30603452
C          12.02904418       15.10248381       16.52140295
C          12.42898722       13.84437253       16.19666608
C          12.15361531       12.62544987       16.94104568
C          13.32562466       11.74606909       16.82841758
C          13.76686330       11.00394159       17.94257913
C          15.16013324       10.87888781       18.22347172
C          15.36057361       10.93316074       19.69161995
C          16.51959197       11.59336971       20.20358250
C          17.62643637       15.91266309       19.61933896
C          17.23365866       13.59149530       21.25448589
C          15.98287352       14.68665360       15.63897262
176
MD Time 702.80
C          10.81644683       13.15936639       10.12779279
C           8.94914155       11.56719517       10.19445574
C           9.87354330       10.53667126       10.14476321
C          11.30852383       10.71572233       10.09513798
C          11.77263051       12.07853602       10.12746957
C          13.09406291       12.68182028       10.03974201
N          12.99398804       14.08589900       10.03528376
N          14.22580391       11.95341975        9.86034717
N          17.63690090       15.31304238        9.10123721
C          15.38825432       12.55498350        9.57029649
C          16.60867951       11.86127365        9.25927930
C          16.94900670       10.49844484        9.31765143
C          18.33106389       10.23525681        9.19351730
C          19.30540358       11.22106942        8.93063842
C          18.95297896       12.54748402        8.75763459
C          17.62026813       12.86391483        9.10186110
C          17.01100021       14.15327832        9.22327723
N          15.64137151       13.94504455        9.52116640
C          11.57443455       14.42819880       10.04920444
C           9.42363902       12.91746500       10.22918715
C          17.14146904       16.52432228        9.19847620
C          19.22547602       18.04723769        8.60042271
C          13.42005902       18.37981424       10.07722515
C          12.16200615       19.06411356       10.24033792
C          11.79639235       20.43203723       10.25524697
C          10.46428343       20.86895648       10.17252509
C           9.41520149       19.84196576       10.18349702
C           9.74785117       18.53267784       10.21405708
C          11.11690632       18.12025887       10.22411619
C          11.73682748       16.77391040       10.13291715
N          13.12790344       17.04811027       10.01713218
N          11.05639161       15.65173933       10.19723109
C          17.92364888       17.75884465        9.01362072
C          19.69488043       19.36329047        8.77744532
C          18.89538717       20.43962673        9.11785849
C          17.53719805       20.20463583        9.46065103
C          17.11302722       18.83821281        9.42046481
C          15.78621207       18.20944753        9.71956121
N          15.80721399       16.83089523        9.53632897
N          14.66530660       18.95358828        9.98465934
H          13.82802850       16.32834331        9.82655156
H          14.93208784       14.61585178        9.64921808
H          10.20660213       21.93152717       10.30408316
H          12.63495652       21.16056381       10.22303764
H          16.85022854       20.94515939        9.88938164
H          19.26461593       21.47820033        9.08778399
H          20.66378851       19.50789117        8.26666043
H          19.86795724       17.19231850        8.23030872
H          19.55711230       13.41088469        8.56718656
H          20.35347814       10.84422039        8.72586338
H          18.69906526        9.22478123        9.28505597
H          16.14835340        9.77148610        9.52219099
H          11.97577919        9.83910179        9.85922924
H           9.56181556        9.49692592       10.21005635
H           7.88946238       11.33518633       10.21951160
H           8.63090744       13.76746432       10.32271630
H           8.91718589       17.78233843       10.21738550
H           8.35333352       20.21825417       10.20005045
C          10.30936397       11.65271208       13.14606452
C           8.54774286        9.94829907       13.39005955
C           9.52376400        8.94451041       13.54793383
C          10.91531207        9.28412059       13.50359358
C          11.26105643       10.65948484       13.34491948
C          12.54649848       11.42697814       13.26304618
N          12.28713001       12.83230496       13.26253524
N          13.76186464       10.90093224       13.16315371
N          17.28902451       14.23965973       12.27505294
C          14.92682996       11.55228493       13.03526449
C          16.22453390       10.86662945       12.95553783
C          16.59208148        9.53614571       13.20912231
C          17.94057080        9.16053194       12.98274590
C          18.94385137       10.13193018       12.72479405
C          18.53024929       11.46424368       12.53273402
C          17.18850509       11.76204490       12.59621514
C          16.61921871       13.07773887       12.41293749
N          15.23287952       12.90409038       12.71366584
C          10.91189612       13.04167211       13.09860400
C           8.92209515       11.28289589       13.26598465
C          16.65344229       15.42504415       12.33902491
C          18.69791951       17.00712013       11.99924327
C          12.78296342       17.02971928       13.06936243
C          11.51139544       17.74419337       13.26747837
C          11.21965975       19.08932056       13.49200196
C           9.90142659       19.50867695       13.65910218
C           8.85688416       18.55415606       13.38265764
C           9.10891064       17.20870482       13.13303254
C          10.46438247       16.77219239       13.22526364
C          10.98036066       15.43207035       13.01270030
N          12.40346318       15.63348408       12.96124235
N          10.30403702       14.26308113       13.02832896
C          17.35624451       16.65681894       12.36655095
C          19.02027563       18.39955637       12.07546058
C          18.12139185       19.36795617       12.58393817
C          16.79548976       18.99728771       12.93726615
C          16.45446270       17.65954585       12.75633271
C          15.18637933       16.97856544       12.89724885
N          15.31730119       15.63802069       12.59068028
N          13.95340514       17.66994114       13.03473332
H          13.09116556       14.84441009       12.87162196
H          14.64306331       13.69766663       12.93783010
H           9.67784609       20.56856844       13.88711604
H          12.04328295       19.84333739       13.71982127
H          16.07675027       19.69513135       13.36691527
H          18.43451932       20.42226951       12.65084267
H          19.98567284       18.79421740       11.79198668
H          19.42599996       16.30067876       11.64589000
H          19.25386580       12.22076753       12.23723219
H          20.02626132        9.85707075       12.74770355
H          18.22098713        8.13005882       13.21433579
H          15.85785851        8.75955909       13.49830296
H          11.69204978        8.50882513       13.62661406
H           9.28865775        7.89616696       13.69887952
H           7.50599694        9.65972504       13.34386493
H           8.12382967       12.03140358       13.10976510
H           8.31912055       16.46322231       13.01393530
H           7.82583118       18.95074228       13.38203200
C          13.22761709       14.02108785       22.04152683
C          14.67499882       13.91674171       22.39265005
C          15.54182880       15.02049992       22.34713498
C          14.95814101       16.37820627       21.89622517
C          13.57337023       16.49297712       21.61366052
C          12.74018801       15.23636766       21.68437809
C          12.76323239       12.80598272       21.46604834
C          13.92125849       11.89449725       21.39079107
C          15.08954535       12.58181971       22.00484276
C          16.35533396       12.42732493       21.40836107
C          16.80671200       14.88942405       21.66997562
C          15.91826401       17.09405414       21.02101742
C          15.41884087       17.76126617       19.86975806
C          13.99257924       17.88460381       19.54894601
C          13.10598842       17.24517375       20.47075862
C          11.97887957       16.48336823       19.83508091
C          11.72804951       15.30746728       20.62937147
C          11.26891696       14.14272468       19.99349305
C          11.88779569       12.85883130       20.41902110
C          14.03334995       11.07235905       20.30893976
C          13.09759752       11.10162105       19.20189855
C          12.04823080       12.00834640       19.30990619
C          11.56018247       12.78452736       18.15704411
C          11.06083499       14.10840676       18.54145962
C          11.37684559       15.22159232       17.82630526
C          11.78459232       16.49856339       18.43495532
C          12.65207035       17.14064820       17.51292990
C          13.80403271       17.81146940       18.05324793
C          17.01180227       16.08938523       20.86706492
C          16.44900224       15.94306614       16.23085662
C          17.42005734       15.86906741       17.29278922
C          17.94110689       14.61360349       17.65597154
C          17.56262835       13.41044560       17.06580606
C          16.52287261       13.48531099       16.04899373
C          14.55196270       14.80395223       15.40966042
C          14.14316010       16.13256364       15.84833031
C          15.32130982       16.84091490       16.31654772
C          15.12220588       17.66386114       17.45243688
C          16.07162073       17.59306518       18.54552328
C          17.20585341       16.75381705       18.45412879
C          18.10599731       14.62567010       19.12524985
C          17.86703335       13.48974813       19.95164813
C          17.42306329       12.27071369       19.34138543
C          17.27683133       12.23526262       17.92577617
C          16.09615781       11.58764273       17.40475551
C          15.59779286       12.37773943       16.28926713
C          14.26086416       12.38721053       15.99764376
C          13.70664223       13.68885472       15.53171447
C          12.87994725       16.28014259       16.30591643
C          12.03111373       15.10281940       16.51839081
C          12.43030957       13.84802420       16.19697620
C          12.15221199       12.62101608       16.94075461
C          13.32840741       11.74191077       16.82765744
C          13.76644454       11.00536947       17.94295301
C          15.15938236       10.87943702       18.22077258
C          15.36015226       10.93391923       19.69158543
C          16.52257362       11.58971024       20.20340958
C          17.62605881       15.91343957       19.61690386
C          17.23022861       13.59406797       21.25681934
C          15.98825292       14.68601506       15.64107553
176
MD Time 723.47
C          10.81726215       13.15958877       10.12543924
C           8.94855618       11.56878866       10.19031341
C           9.87696281       10.53252922       10.14346501
C          11.30834053       10.71712728       10.09708569
C          11.77464175       12.08153368       10.12865980
C          13.09660119       12.68628362       10.04148383
N          12.99377433       14.08504163       10.03365505
N          14.22831585       11.95148492        9.86124581
N          17.63724261       15.31640621        9.09823988
C          15.38843282       12.55672099        9.56791289
C          16.60927285       11.86149710        9.25254511
C          16.94852427       10.49984160        9.31711183
C          18.33086258       10.23367815        9.19212393
C          19.30219485       11.21844347        8.93133246
C          18.94712962       12.54597783        8.75216396
C          17.62233255       12.86575485        9.09744485
C          17.00971463       14.15330300        9.22162825
N          15.63993320       13.94526522        9.52047344
C          11.57638924       14.43205310       10.04918033
C           9.42495776       12.91634675       10.22701195
C          17.14167621       16.52717910        9.19391682
C          19.22443912       18.04722225        8.60052853
C          13.41733134       18.37910864       10.07801124
C          12.16118829       19.06041993       10.23940234
C          11.79734795       20.43085152       10.25728948
C          10.46555332       20.87340645       10.17324365
C           9.41148183       19.84560363       10.18525409
C           9.75211087       18.53229065       10.21215736
C          11.11712115       18.11745111       10.22644766
C          11.73796008       16.77230471       10.13124468
N          13.12675764       17.04897937       10.01912769
N          11.05311042       15.65242286       10.19651566
C          17.92263573       17.75904453        9.01316413
C          19.69658822       19.36708719        8.77584739
C          18.89400312       20.43686048        9.11734261
C          17.54031937       20.20411888        9.45886335
C          17.11292196       18.83820101        9.42030493
C          15.78829311       18.21156929        9.72093656
N          15.80757976       16.83248236        9.53328432
N          14.66555061       18.95503880        9.98885815
H          13.83270909       16.33614993        9.81986994
H          14.94110726       14.62426669        9.63396672
H          10.19777727       21.93498886       10.31203148
H          12.63985329       21.16055392       10.23370272
H          16.85764941       20.94537010        9.88255940
H          19.26152582       21.47704882        9.08455802
H          20.66825964       19.50792828        8.27562299
H          19.86038765       17.18156126        8.23052769
H          19.55419323       13.39880428        8.57539760
H          20.35304545       10.83758580        8.72109893
H          18.71327441        9.22890847        9.28655904
H          16.15473483        9.77083205        9.51808041
H          11.97790215        9.83832354        9.86110028
H           9.56316831        9.49869067       10.19776841
H           7.89360708       11.34018438       10.21756064
H           8.62081140       13.77008824       10.31360195
H           8.91650512       17.78207856       10.22319206
H           8.35530750       20.21548074       10.20095549
C          10.30969223       11.65444777       13.14497772
C           8.54764184        9.94858286       13.38646687
C           9.51973222        8.94304368       13.54597802
C          10.91420770        9.28411964       13.50244111
C          11.25998222       10.65728942       13.34589020
C          12.54764197       11.42886641       13.26335603
N          12.29048456       12.83276323       13.25986365
N          13.76263492       10.89917331       13.16518929
N          17.29041761       14.24052501       12.27226721
C          14.92559654       11.55449844       13.03210220
C          16.22226561       10.86964556       12.95520087
C          16.59473343        9.53940295       13.20904931
C          17.93671144        9.15696597       12.98253804
C          18.94730388       10.13255724       12.72999701
C          18.52977190       11.46115601       12.52969520
C          17.18794129       11.75956437       12.59473136
C          16.61971610       13.07754714       12.41558854
N          15.23182424       12.90295695       12.71383409
C          10.91080554       13.04122341       13.09538819
C           8.92087653       11.28435398       13.26611799
C          16.65260004       15.42328649       12.33977731
C          18.69954177       17.00716817       12.00110389
C          12.78277345       17.03027970       13.06968403
C          11.51422248       17.74553669       13.26752541
C          11.21812834       19.08646114       13.49403107
C           9.90083706       19.50549182       13.65741007
C           8.85755989       18.55615549       13.38461888
C           9.11224312       17.20976595       13.13056461
C          10.46361523       16.77236251       13.22726671
C          10.97881363       15.43449311       13.01130540
N          12.40500774       15.63242718       12.96209487
N          10.30247248       14.26397518       13.02659482
C          17.35848399       16.65943630       12.36951778
C          19.01864130       18.39898970       12.07891179
C          18.11922420       19.36619139       12.58663591
C          16.79499326       18.99914059       12.93656372
C          16.45530857       17.65990293       12.76022271
C          15.18484999       16.97494950       12.89701618
N          15.32151706       15.64089670       12.59091960
N          13.95387975       17.67150649       13.03587985
H          13.08801197       14.84647592       12.87308530
H          14.63734860       13.69715201       12.93293557
H           9.68581323       20.56244351       13.90220731
H          12.04925711       19.84174581       13.70375662
H          16.07093514       19.69500319       13.36190642
H          18.44090566       20.41864608       12.64154266
H          19.98169740       18.79797479       11.79513960
H          19.41500794       16.30306499       11.64879669
H          19.24537360       12.22163835       12.23353392
H          20.03479497        9.84538807       12.74347062
H          18.21740035        8.14020377       13.21763023
H          15.85853422        8.76076420       13.48691442
H          11.69676514        8.51151517       13.63068993
H           9.28795849        7.90343151       13.68033948
H           7.50819145        9.66022840       13.35539377
H           8.12036078       12.02408563       13.11070224
H           8.31923532       16.46619355       13.01730125
H           7.82300011       18.94607508       13.38129117
C          13.22291918       14.02138500       22.04348442
C          14.67625939       13.91388718       22.39526781
C          15.54541643       15.01916366       22.34912462
C          14.95863397       16.38413157       21.89798536
C          13.57630524       16.49700893       21.61155234
C          12.73953227       15.23663399       21.68481632
C          12.76130527       12.80345622       21.46819734
C          13.91822974       11.89577517       21.39195187
C          15.09505120       12.57757090       22.00175156
C          16.35509102       12.42840952       21.40826582
C          16.80477919       14.88414584       21.67107281
C          15.91546327       17.09512090       21.02289042
C          15.41728250       17.76052770       19.87096433
C          13.99050006       17.88406081       19.54580219
C          13.10726451       17.24592752       20.47376997
C          11.97929011       16.48675669       19.83631292
C          11.72764419       15.30796633       20.62818307
C          11.26981193       14.14022371       19.98986261
C          11.88883748       12.85390430       20.41551258
C          14.03311242       11.07019140       20.30801665
C          13.09723379       11.10220019       19.19926303
C          12.04830491       12.00600063       19.31146855
C          11.56116186       12.78460841       18.15924428
C          11.05897230       14.10668741       18.54339439
C          11.37999436       15.22039246       17.82839235
C          11.78384429       16.50529941       18.44028687
C          12.65196427       17.13735401       17.51746739
C          13.80457576       17.81240886       18.05149581
C          17.01218660       16.08721286       20.87063410
C          16.45103606       15.94441124       16.23399075
C          17.42427388       15.86331837       17.29562733
C          17.94205203       14.61755030       17.65335740
C          17.56296092       13.40654111       17.06703326
C          16.52105669       13.48678565       16.05328707
C          14.54942747       14.80506839       15.41137840
C          14.14741312       16.13593296       15.85096481
C          15.31787491       16.84077026       16.31818223
C          15.11975658       17.66238954       17.45302970
C          16.06965778       17.59403238       18.54644990
C          17.20499293       16.75308925       18.45541059
C          18.10426804       14.62696843       19.12922400
C          17.86811350       13.48761026       19.95078864
C          17.42032005       12.26865527       19.34030444
C          17.27623103       12.23603525       17.92325681
C          16.10190009       11.59234414       17.40325403
C          15.59774613       12.38107555       16.28924746
C          14.26358231       12.39320545       15.99926767
C          13.70914001       13.69234574       15.53353415
C          12.87702471       16.28106532       16.30627528
C          12.03297036       15.10341138       16.51561710
C          12.43179653       13.85134930       16.19685407
C          12.15098211       12.61663295       16.94031624
C          13.33093136       11.73765531       16.82704013
C          13.76600325       11.00672594       17.94318232
C          15.15903719       10.88013414       18.21817488
C          15.35990960       10.93467788       19.69140355
C          16.52516751       11.58591407       20.20339367
C          17.62570840       15.91445306       19.61439254
C          17.22679089       13.59682367       21.25906895
C          15.99358930       14.68560589       15.64313568
176
MD Time 744.14
C          10.81796291       13.15981014       10.12314657
C           8.94818467       11.57063858       10.18620913
C           9.88076794       10.52826357       10.14213991
C          11.30806208       10.71874859       10.09892588
C          11.77642640       12.08428956       10.12975791
C          13.09904086       12.69087939       10.04318885
N          12.99339600       14.08423646       10.03197398
N          14.23079293       11.94963808        9.86211207
N          17.63778414       15.31960793        9.09513693
C          15.38843809       12.55849246        9.56554634
C          16.61000023       11.86182162        9.24597955
C          16.94815337       10.50135268        9.31656928
C          18.33053291       10.23200283        9.19075261
C          19.29928290       11.21565157        8.93179431
C          18.94102149       12.54448147        8.74695922
C          17.62432618       12.86746744        9.09284993
C          17.00823035       14.15346995        9.22001059
N          15.63891841       13.94507053        9.51965340
C          11.57870367       14.43546175       10.04934390
C           9.42597150       12.91537577       10.22475584
C          17.14165811       16.53019403        9.18933557
C          19.22349531       18.04692105        8.60073598
C          13.41499186       18.37864166       10.07881295
C          12.16012420       19.05701386       10.23841053
C          11.79852560       20.42987365       10.25922805
C          10.46671718       20.87754246       10.17416473
C           9.40784020       19.84994536       10.18701149
C           9.75631729       18.53137853       10.21026523
C          11.11723929       18.11444980       10.22875098
C          11.73906736       16.77116850       10.12960423
N          13.12547567       17.04952532       10.02107626
N          11.04981081       15.65299573       10.19564942
C          17.92170023       17.75934694        9.01275258
C          19.69858575       19.37062284        8.77376730
C          18.89235712       20.43430399        9.11692481
C          17.54343845       20.20324709        9.45715839
C          17.11256763       18.83834196        9.42022459
C          15.79017322       18.21382226        9.72225772
N          15.80807794       16.83416511        9.53026112
N          14.66568415       18.95637626        9.99304773
H          13.83799712       16.34391434        9.81381299
H          14.94656742       14.63612870        9.61982533
H          10.18935643       21.93768485       10.31905203
H          12.64345255       21.15991449       10.24474677
H          16.86522453       20.94599700        9.87493910
H          19.25862450       21.47497239        9.08162727
H          20.67301207       19.50907232        8.28611607
H          19.85176049       17.17371829        8.23167630
H          19.55429575       13.38805841        8.58274433
H          20.34999301       10.83252597        8.71724060
H          18.72728010        9.23154004        9.28826501
H          16.16197043        9.76984997        9.51383306
H          11.97878754        9.83995951        9.86467220
H           9.56351630        9.49953381       10.18502688
H           7.89665291       11.34526698       10.21584431
H           8.61514697       13.76934281       10.30383314
H           8.91815192       17.78260565       10.22893656
H           8.35896995       20.21137812       10.20167901
C          10.30925946       11.65637554       13.14409653
C           8.54764271        9.94876434       13.38291639
C           9.51608666        8.94174308       13.54395878
C          10.91299265        9.28421943       13.50132081
C          11.25920594       10.65510936       13.34674516
C          12.54867737       11.43094858       13.26370425
N          12.29385391       12.83314135       13.25703466
N          13.76348634       10.89739704       13.16733795
N          17.29170816       14.24120164       12.26940799
C          14.92448977       11.55669704       13.02877295
C          16.21962164       10.87229141       12.95500898
C          16.59738025        9.54248141       13.20884867
C          17.93285386        9.15353756       12.98253563
C          18.95075746       10.13313306       12.73522123
C          18.52962723       11.45786387       12.52655746
C          17.18765785       11.75758650       12.59309747
C          16.62000883       13.07741360       12.41845177
N          15.23081986       12.90174609       12.71405405
C          10.90997947       13.04050659       13.09229583
C           8.91978916       11.28602096       13.26604789
C          16.65184304       15.42138713       12.34060193
C          18.70084516       17.00758308       12.00312231
C          12.78240191       17.03073616       13.07006436
C          11.51702359       17.74659926       13.26757451
C          11.21691430       19.08394116       13.49628846
C           9.90011562       19.50217985       13.65557452
C           8.85815367       18.55841186       13.38663939
C           9.11574759       17.21075389       13.12830398
C          10.46256405       16.77262740       13.22901447
C          10.97760969       15.43689565       13.01007073
N          12.40663901       15.63140003       12.96294318
N          10.30096750       14.26483607       13.02487586
C          17.36131250       16.66228830       12.37233556
C          19.01694703       18.39832754       12.08247455
C          18.11692572       19.36440625       12.58932137
C          16.79466521       19.00102883       12.93585108
C          16.45601689       17.66033640       12.76420072
C          15.18283347       16.97154475       12.89664545
N          15.32551166       15.64369900       12.59125993
N          13.95464855       17.67277107       13.03707855
H          13.08309108       14.85024786       12.87454007
H          14.63105083       13.69738959       12.92697408
H           9.69363184       20.55511756       13.91699206
H          12.05319373       19.83752869       13.68629158
H          16.06499112       19.69520509       13.35646593
H          18.44710182       20.41433531       12.63237240
H          19.97908108       18.80107031       11.79766003
H          19.40533741       16.30347510       11.65088051
H          19.23716187       12.22327586       12.23009910
H          20.04094159        9.83434778       12.73872824
H          18.21423378        8.14913925       13.22067188
H          15.85960658        8.76317053       13.47533505
H          11.70073414        8.51516448       13.63457930
H           9.28610192        7.90915439       13.66191938
H           7.50903680        9.66071820       13.36725027
H           8.11777724       12.01692979       13.11204167
H           8.31927947       16.46940041       13.02031217
H           7.82077084       18.94066247       13.38058504
C          13.21860954       14.02171009       22.04582682
C          14.67733345       13.91097709       22.39794791
C          15.54867974       15.01814735       22.35092947
C          14.95909384       16.38995620       21.89977336
C          13.57932246       16.50072419       21.60950086
C          12.73869134       15.23736303       21.68512163
C          12.75969359       12.80080733       21.47049724
C          13.91512632       11.89727513       21.39341251
C          15.10046867       12.57330586       21.99851709
C          16.35492107       12.42952849       21.40813049
C          16.80281556       14.87886220       21.67227070
C          15.91257537       17.09575766       21.02477866
C          15.41573782       17.75978685       19.87189868
C          13.98843663       17.88340302       19.54280136
C          13.10838603       17.24664608       20.47634077
C          11.97979223       16.49042251       19.83764267
C          11.72722839       15.30841881       20.62692883
C          11.27083583       14.13765263       19.98638533
C          11.88949453       12.84922905       20.41208650
C          14.03320794       11.06781755       20.30682470
C          13.09664359       11.10286076       19.19679350
C          12.04807495       12.00368367       19.31272516
C          11.56197063       12.78453989       18.16147462
C          11.05719620       14.10462718       18.54578378
C          11.38309452       15.21959194       17.83018423
C          11.78286955       16.51167375       18.44574312
C          12.65240019       17.13429903       17.52192846
C          13.80492517       17.81329786       18.04993673
C          17.01271141       16.08507449       20.87400536
C          16.45326287       15.94564453       16.23723369
C          17.42804975       15.85807590       17.29807108
C          17.94323629       14.62119232       17.65121008
C          17.56317176       13.40262237       17.06830217
C          16.51924886       13.48800161       16.05763852
C          14.54701694       14.80613851       15.41305621
C          14.15188188       16.13910967       15.85321142
C          15.31435145       16.84071159       16.31999377
C          15.11732222       17.66090286       17.45370676
C          16.06799847       17.59495597       18.54753351
C          17.20416613       16.75208791       18.45674556
C          18.10247133       14.62826290       19.13333072
C          17.86927878       13.48565428       19.94986913
C          17.41776718       12.26657695       19.33882975
C          17.27564559       12.23681641       17.92085826
C          16.10745538       11.59690502       17.40171792
C          15.59810310       12.38415593       16.28921292
C          14.26628597       12.39954681       16.00058728
C          13.71171089       13.69578585       15.53547283
C          12.87366945       16.28212673       16.30710206
C          12.03458696       15.10428427       16.51312265
C          12.43345077       13.85428367       16.19630535
C          12.14993295       12.61233101       16.93973237
C          13.33318098       11.73335009       16.82653544
C          13.76556372       11.00799835       17.94325701
C          15.15912882       10.88099125       18.21568965
C          15.35984580       10.93543066       19.69105749
C          16.52736316       11.58199082       20.20354225
C          17.62536413       15.91570489       19.61187615
C          17.22337741       13.59969730       21.26119270
C          15.99883120       14.68547207       15.64514160
176
MD Time 764.82
C          10.81856195       13.16004671       10.12091825
C           8.94808938       11.57270351       10.18214523
C           9.88491621       10.52395732       10.14078264
C          11.30771106       10.72057816       10.10065657
C          11.77797720       12.08679652       10.13076554
C          13.10137559       12.69556790       10.04485447
N          12.99286754       14.08351425       10.03024255
N          14.23322376       11.94789921        9.86294717
N          17.63851215       15.32261780        9.09192845
C          15.38827279       12.56027590        9.56319491
C          16.61085185       11.86226158        9.23959245
C          16.94791935       10.50297642        9.31601091
C          18.33008240       10.23022359        9.18940995
C          19.29667116       11.21271674        8.93200584
C          18.93469244       12.54294041        8.74202784
C          17.62619096       12.86904928        9.08808187
C          17.00657432       14.15381046        9.21841447
N          15.63832591       13.94449243        9.51870374
C          11.58135140       14.43838808       10.04968915
C           9.42666209       12.91456683       10.22240996
C          17.14140604       16.53335024        9.18473794
C          19.22265592       18.04634903        8.60104133
C          13.41306564       18.37842517       10.07963369
C          12.15881162       19.05393455       10.23737011
C          11.79992089       20.42911010       10.26106702
C          10.46775316       20.88135338       10.17529633
C           9.40437546       19.85490735       10.18876272
C           9.76041803       18.53000261       10.20839249
C          11.11726744       18.11126238       10.23101325
C          11.74013313       16.77050349       10.12800473
N          13.12407964       17.04973273       10.02296851
N          11.04650801       15.65345964       10.19463026
C          17.92085169       17.75977062        9.01238176
C          19.70085159       19.37383841        8.77121871
C          18.89048165       20.43198476        9.11659312
C          17.54653376       20.20199808        9.45553468
C          17.11197140       18.83864559        9.42022578
C          15.79182718       18.21620399        9.72352720
N          15.80870524       16.83594747        9.52725905
N          14.66570333       18.95759300        9.99722542
H          13.84377438       16.35162285        9.80844328
H          14.94862727       14.65111525        9.60678359
H          10.18152877       21.93953697       10.32511717
H          12.64566151       21.15852891       10.25611833
H          16.87272843       20.94724299        9.86666548
H          19.25590613       21.47198712        9.07902045
H          20.67821158       19.51136758        8.29797344
H          19.84215438       17.16892068        8.23376828
H          19.55774718       13.37912202        8.58908248
H          20.34426044       10.82913780        8.71434741
H          18.74083970        9.23270631        9.29018316
H          16.16973523        9.76837802        9.50954238
H          11.97845188        9.84403491        9.86994612
H           9.56280571        9.49909145       10.17188873
H           7.89826014       11.35032426       10.21433396
H           8.61411056       13.76513108       10.29346182
H           8.92218146       17.78393468       10.23455567
H           8.36369936       20.20620435       10.20224452
C          10.30806922       11.65847409       13.14342209
C           8.54774909        9.94884861       13.37942074
C           9.51286552        8.94067828       13.54185546
C          10.91166663        9.28440350       13.50023950
C          11.25872446       10.65298749       13.34747946
C          12.54960192       11.43320283       13.26409174
N          12.29721867       12.83343858       13.25404642
N          13.76441327       10.89561288       13.16959698
N          17.29288553       14.24167327       12.26648293
C          14.92350643       11.55885836       13.02528957
C          16.21662515       10.87455007       12.95495986
C          16.59998317        9.54537706       13.20851555
C          17.92903770        9.15035714       12.98272291
C          18.95420434       10.13361133       12.74045297
C          18.52981281       11.45437075       12.52332991
C          17.18764595       11.75612571       12.59131645
C          16.62010633       13.07733800       12.42151223
N          15.22985654       12.90049397       12.71432608
C          10.90943019       13.03954214       13.08932921
C           8.91885624       11.28786733       13.26577547
C          16.65121544       15.41939845       12.34149409
C          18.70178844       17.00839733       12.00531981
C          12.78186715       17.03108546       13.07050228
C          11.51977118       17.74735679       13.26762809
C          11.21604151       19.08176034       13.49874869
C           9.89927550       19.49876525       13.65362235
C           8.85865448       18.56088557       13.38870382
C           9.11939241       17.21168350       13.12626016
C          10.46126491       16.77299221       13.23050008
C          10.97675542       15.43925051       13.00899974
N          12.40830807       15.63045375       12.96379121
N          10.29952959       14.26566139       13.02317091
C          17.36469546       16.66534036       12.37500916
C          19.01520919       18.39757173       12.08614439
C          18.11452334       19.36261314       12.59198116
C          16.79447284       19.00294352       12.93514088
C          16.45658235       17.66083879       12.76826236
C          15.18036565       16.96840144       12.89614544
N          15.32925317       15.64639122       12.59169842
N          13.95570369       17.67372214       13.03832742
H          13.07687135       14.85521036       12.87592732
H          14.62438182       13.69814331       12.91989075
H           9.70119537       20.54673821       13.93138991
H          12.05501141       19.83078033       13.66761028
H          16.05900217       19.69573778       13.35056973
H          18.45300035       20.40940749       12.62342078
H          19.97776990       18.80346950       11.79956822
H          19.39752458       16.30147389       11.65189540
H          19.22940397       12.22573221       12.22687541
H          20.04435049        9.82416989       12.73355539
H          18.21167712        8.15592089       13.22364284
H          15.86098510        8.76671156       13.46366517
H          11.70380700        8.51979794       13.63823296
H           9.28289125        7.91251533       13.64377429
H           7.50840926        9.66119846       13.37934619
H           8.11584359       12.01028013       13.11373509
H           8.31930175       16.47283574       13.02292810
H           7.81918799       18.93458495       13.37995875
C          13.21471563       14.02204417       22.04855641
C          14.67822753       13.90802662       22.40068145
C          15.55156773       15.01743739       22.35256438
C          14.95952827       16.39565205       21.90160007
C          13.58240298       16.50409677       21.60753050
C          12.73766737       15.23856003       21.68528672
C          12.75838089       12.79805516       21.47293266
C          13.91198369       11.89894909       21.39513363
C          15.10571476       12.56906436       21.99517565
C          16.35486118       12.43065942       21.40792900
C          16.80082804       14.87364130       21.67356602
C          15.90963191       17.09595621       21.02667777
C          15.41420055       17.75905111       19.87254648
C          13.98640547       17.88263364       19.53996927
C          13.10934602       17.24734892       20.47844028
C          11.98038096       16.49434750       19.83910350
C          11.72680448       15.30881401       20.62560795
C          11.27199721       14.13502988       19.98310346
C          11.88977263       12.84483803       20.40879969
C          14.03361692       11.06526684       20.30539072
C          13.09584577       11.10358433       19.19451427
C          12.04753422       12.00138950       19.31364388
C          11.56261688       12.78430280       18.16369712
C          11.05551964       14.10225340       18.54858377
C          11.38613400       15.21919461       17.83169356
C          11.78165334       16.51764016       18.45128346
C          12.65338462       17.13150151       17.52628593
C          13.80506395       17.81413357       18.04858312
C          17.01337429       16.08298427       20.87714798
C          16.45567467       15.94675033       16.24057502
C          17.43133927       15.85342870       17.30009273
C          17.94468288       14.62441923       17.64956589
C          17.56327796       13.39875735       17.06960679
C          16.51747989       13.48895352       16.06204575
C          14.54480166       14.80719433       15.41469448
C          14.15646703       16.14207104       15.85507172
C          15.31079733       16.84074011       16.32198876
C          15.11491509       17.65941252       17.45447509
C          16.06665785       17.59582102       18.54877220
C          17.20336792       16.75082152       18.45812777
C          18.10061799       14.62953963       19.13752457
C          17.87050988       13.48388893       19.94891306
C          17.41542323       12.26449502       19.33697121
C          17.27510118       12.23760189       17.91861127
C          16.11274990       11.60127763       17.40014976
C          15.59887572       12.38697553       16.28916807
C          14.26894584       12.40619695       16.00161984
C          13.71432699       13.69915867       15.53753488
C          12.86994800       16.28333668       16.30838287
C          12.03593903       15.10545507       16.51094383
C          12.43527097       13.85677273       16.19533814
C          12.14906915       12.60813973       16.93900761
C          13.33514512       11.72904458       16.82610936
C          13.76515107       11.00917376       17.94317047
C          15.15968278       10.88201908       18.21332635
C          15.35995985       10.93617113       19.69053203
C          16.52915606       11.57795463       20.20385963
C          17.62500714       15.91719377       19.60942413
C          17.22002000       13.60262007       21.26314815
C          16.00393115       14.68565280       15.64708310
176
MD Time 785.49
C          10.81907285       13.16031168       10.11875798
C           8.94831888       11.57493832       10.17812505
C           9.88935793       10.51968315       10.13938873
C          11.30730358       10.72261477       10.10227900
C          11.77928789       12.08905248       10.13168436
C          13.10359885       12.70030555       10.04647783
N          12.99220468       14.08290595       10.02846334
N          14.23559574       11.94628848        9.86375232
N          17.63941145       15.32541068        9.08861559
C          15.38794283       12.56204763        9.56085623
C          16.61181618       11.86282858        9.23339445
C          16.94784631       10.50471056        9.31542457
C          18.32952466       10.22832651        9.18810292
C          19.29434566       11.20966737        8.93195316
C          18.92820461       12.54132279        8.73737104
C          17.62786773       12.87050100        9.08314835
C          17.00477646       14.15435135        9.21682961
N          15.63811554       13.94360352        9.51762707
C          11.58430224       14.44080249       10.05020969
C           9.42702873       12.91392173       10.21996462
C          17.14091507       16.53662670        9.18012969
C          19.22192596       18.04553429        8.60144446
C          13.41157053       18.37846787       10.08047704
C          12.15725275       19.05121811       10.23628857
C          11.80152030       20.42855982       10.26281113
C          10.46864226       20.88482682       10.17664478
C           9.40119845       19.86039168       10.19050079
C           9.76436994       18.52823856       10.20655112
C          11.11721332       18.10790114       10.23322130
C          11.74114008       16.77030252       10.12645481
N          13.12259490       17.04959127       10.02479502
N          11.04321973       15.65381689       10.19345629
C          17.92009674       17.76033478        9.01204850
C          19.70335608       19.37668236        8.76822105
C          18.88841442       20.42991811        9.11633318
C          17.54958005       20.20035544        9.45399236
C          17.11114204       18.83911808        9.42030959
C          15.79323140       18.21871172        9.72474706
N          15.80945667       16.83783287        9.52427855
N          14.66560554       18.95868191       10.00138764
H          13.84989449       16.35926951        9.80382518
H          14.94791908       14.66839016        9.59478074
H          10.17446495       21.94052360       10.33020944
H          12.64648001       21.15636209       10.26775697
H          16.87995062       20.94928298        9.85787457
H          19.25337892       21.46817888        9.07676655
H          20.68404600       19.51484070        8.31100849
H          19.83175706       17.16712910        8.23675096
H          19.56462405       13.37217239        8.59434326
H          20.33599127       10.82744019        8.71243438
H          18.75367369        9.23254047        9.29231052
H          16.17770038        9.76626217        9.50530123
H          11.97702149        9.85042710        9.87687870
H           9.56103729        9.49713561       10.15840529
H           7.89823419       11.35527272       10.21299793
H           8.61768922       13.75756040       10.28256260
H           8.92850407       17.78596979       10.23998831
H           8.36873153       20.20027801       10.20267595
C          10.30613721       11.66071948       13.14295544
C           8.54795325        9.94884082       13.37599257
C           9.51009713        8.93989731       13.53965198
C          10.91022949        9.28466040       13.49920296
C          11.25852859       10.65096906       13.34808810
C          12.55041522       11.43560491       13.26451899
N          12.30055913       12.83365443       13.25089798
N          13.76540902       10.89383143       13.17196308
N          17.29393868       14.24192567       12.26350043
C          14.92264075       11.56095812       13.02166673
C          16.21330994       10.87641319       12.95504719
C          16.60250474        9.54809023       13.20804474
C          17.92530560        9.14751992       12.98308615
C          18.95762529       10.13395081       12.74567658
C          18.53032505       11.45068819       12.52002086
C          17.18789096       11.75518671       12.58939521
C          16.62001943       13.07731925       12.42475380
N          15.22892245       12.89924053       12.71465032
C          10.90916622       13.03835315       13.08649064
C           8.91809842       11.28985987       13.26530363
C          16.65076021       15.41737374       12.34244921
C          18.70235487       17.00962075       12.00770579
C          12.78119063       17.03132572       13.07099654
C          11.52243594       17.74779105       13.26768960
C          11.21552038       19.07990186       13.50138139
C           9.89833428       19.49527131       13.65158056
C           8.85905575       18.56353018       13.39079555
C           9.12314135       17.21257173       13.12444208
C          10.45975869       16.77345868       13.23171741
C          10.97625436       15.44153024       13.00809543
N          12.40995615       15.62965017       12.96464413
N          10.29816760       14.26644870       13.02147939
C          17.36858668       16.66855689       12.37754600
C          19.01345280       18.39672940       12.08991381
C          18.11204677       19.36082298       12.59460078
C          16.79437940       19.00487474       12.93444648
C          16.45700209       17.66140184       12.77240133
C          15.17748721       16.96556789       12.89552487
N          15.33271186       15.64893686       12.59223152
N          13.95703273       17.67434706       13.03962439
H          13.06996096       14.86069402       12.87717136
H          14.61758167       13.69913865       12.91163226
H           9.70838880       20.53751072       13.94533353
H          12.05478612       19.82175212       13.64794106
H          16.05306775       19.69659033       13.34419045
H          18.45850424       20.40396834       12.61477725
H          19.97761184       18.80511076       11.80091713
H          19.39186082       16.29687203       11.65171333
H          19.22223911       12.22900387       12.22382627
H          20.04485137        9.81502387       12.72803807
H          18.20987918        8.15976967       13.22669862
H          15.86253067        8.77125307       13.45202362
H          11.70589589        8.52537356       13.64161203
H           9.27820439        7.91295065       13.62601496
H           7.50633104        9.66170577       13.39159259
H           8.11429344       12.00449233       13.11572873
H           8.31935200       16.47648883       13.02511203
H           7.81823073       18.92795448       13.37945819
C          13.21125908       14.02237288       22.05167159
C          14.67895019       13.90505332       22.40345968
C          15.55403117       15.01701813       22.35404473
C          14.95994442       16.40118981       21.90347637
C          13.58552463       16.50710369       21.60566301
C          12.73646610       15.24022157       21.68530794
C          12.75734656       12.79522214       21.47548627
C          13.90884033       11.90074371       21.39707136
C          15.11070654       12.56488658       21.99176605
C          16.35494838       12.43177948       21.40763491
C          16.79882365       14.86855460       21.67495508
C          15.90666500       17.09571241       21.02857912
C          15.41266617       17.75832615       19.87289738
C          13.98442339       17.88175666       19.53733009
C          13.11013969       17.24805468       20.48004230
C          11.98104854       16.49850964       19.84072636
C          11.72637589       15.30914465       20.62422125
C          11.27330314       14.13237429       19.98005997
C          11.88968117       12.84076077       20.40571106
C          14.03431667       11.06257185       20.30374510
C          13.09486257       11.10435093       19.19244687
C          12.04667677       11.99911281       19.31419717
C          11.56310840       12.78387967       18.16587120
C          11.05395628       14.09960028       18.55174273
C          11.38909646       15.21919485       17.83293901
C          11.78018626       16.52315896       18.45686371
C          12.65491592       17.12897592       17.53051596
C          13.80497959       17.81491402       18.04744707
C          17.01417063       16.08095660       20.88003449
C          16.45825911       15.94771559       16.24400164
C          17.43410331       15.84945744       17.30167045
C          17.94641166       14.62712757       17.64845647
C          17.56329738       13.39501388       17.07094145
C          16.51578008       13.48964194       16.06650375
C          14.54285023       14.80826916       15.41629288
C          14.16106231       16.14479506       15.85654901
C          15.30727257       16.84085674       16.32417257
C          15.11254800       17.65793043       17.45534280
C          16.06564824       17.59661328       18.55016236
C          17.20259230       16.74930158       18.45955007
C          18.09871967       14.63078568       19.14176041
C          17.87178694       13.48232062       19.94794264
C          17.41330461       12.26242542       19.33474546
C          17.27462392       12.23838688       17.91654541
C          16.11771246       11.60541402       17.39855209
C          15.60006873       12.38952946       16.28911510
C          14.27153576       12.41311230       16.00238567
C          13.71696088       13.70244736       15.53972261
C          12.86593466       16.28470449       16.31009954
C          12.03700526       15.10693181       16.50911259
C          12.43725068       13.85877305       16.19396384
C          12.14839313       12.60408771       16.93814904
C          13.33681625       11.72479005       16.82572512
C          13.76479102       11.01023898       17.94291956
C          15.16071825       10.88322669       18.21109313
C          15.36024920       10.93689235       19.68981371
C          16.53054774       11.57382417       20.20434651
C          17.62462101       15.91891541       19.60710344
C          17.21675079       13.60552035       21.26489336
C          16.00884588       14.68617968       15.64895131
176
MD Time 806.16
C          10.81950912       13.16061446       10.11666970
C           8.94890484       11.57729464       10.17415292
C           9.89403604       10.51549969       10.13795440
C          11.30684950       10.72486473       10.10379736
C          11.78035253       12.09106037       10.13251606
C          13.10570407       12.70504499       10.04805581
N          12.99142390       14.08244223       10.02663945
N          14.23789426       11.94482604        9.86452895
N          17.64046628       15.32796669        9.08520021
C          15.38745771       12.56378315        9.55852756
C          16.61287939       11.86353099        9.22739687
C          16.94795498       10.50655027        9.31479929
C          18.32887838       10.22629320        9.18683880
C          19.29227527       11.20653655        8.93162722
C          18.92164680       12.53962136        8.73298341
C          17.62929742       12.87182777        9.07805917
C          17.00286778       14.15511401        9.21524593
N          15.63822123       13.94250429        9.51642819
C          11.58752153       14.44268372       10.05089885
C           9.42708963       12.91342930       10.21740950
C          17.14018376       16.53999958        9.17551694
C          19.22130477       18.04451846        8.60194843
C          13.41051665       18.37877475       10.08134684
C          12.15545432       19.04889669       10.23517323
C          11.80330080       20.42821433       10.26446531
C          10.46936873       20.88794874       10.17821460
C           9.39842657       19.86629068       10.19221837
C           9.76814040       18.52617322       10.20475305
C          11.11708532       18.10438385       10.23536171
C          11.74206901       16.77054890       10.12496287
N          13.12104887       17.04909669       10.02654659
N          11.03996745       15.65406985       10.19212570
C          17.91943900       17.76105779        9.01175073
C          19.70606314       19.37911193        8.76479909
C          18.88619828       20.42810718        9.11612838
C          17.55254767       20.19831143        9.45253377
C          17.11008937       18.83976175        9.42047634
C          15.79436491       18.22134173        9.72591900
N          15.81032506       16.83982402        9.52132088
N          14.66538913       18.95963696       10.00552997
H          13.85619582       16.36684557        9.80002140
H          14.94537429       14.68676987        9.58374683
H          10.16831289       21.94068297       10.33432326
H          12.64600302       21.15346227       10.27959628
H          16.88671188       20.95224418        9.84868444
H          19.25106507       21.46370215        9.07489362
H          20.69070481       19.51949622        8.32502499
H          19.82086376       17.16812548        8.24050386
H          19.57472213       13.36707291        8.59852768
H          20.32553747       10.82737080        8.71146916
H          18.76547866        9.23125280        9.29463330
H          16.18555616        9.76337783        9.50119609
H          11.97472932        9.85886985        9.88538433
H           9.55827789        9.49361012       10.14462557
H           7.89655914       11.36006119       10.21179984
H           8.62565761       13.74694188       10.27122807
H           8.93689052       17.78851243       10.24517861
H           8.37321707       20.19395436       10.20299629
C          10.30349091       11.66308531       13.14269757
C           8.54823614        9.94874653       13.37264485
C           9.50779796        8.93941839       13.53733689
C          10.90868147        9.28498460       13.49821571
C          11.25860273       10.64910105       13.34856620
C          12.55111969       11.43812824       13.26498589
N          12.30385490       12.83378870       13.24758930
N          13.76646486       10.89206458       13.17443231
N          17.29485814       14.24194715       12.26046946
C          14.92188452       11.56297061       13.01792091
C          16.20971948       10.87788089       12.95526091
C          16.60490882        9.55062481       13.20743128
C          17.92170521        9.14509568       12.98361594
C          18.96098990       10.13411595       12.75087491
C          18.53116001       11.44683582       12.51663803
C          17.18837264       11.75476471       12.58734431
C          16.61975913       13.07735484       12.42815895
N          15.22800517       12.89802638       12.71502605
C          10.90919168       13.03696612       13.08378263
C           8.91753213       11.29196446       13.26463632
C          16.65051674       15.41536698       12.34346276
C          18.70255638       17.01123671       12.01027539
C          12.78039637       17.03145601       13.07154581
C          11.52498691       17.74789003       13.26776355
C          11.21534684       19.07833241       13.50415219
C           9.89731364       19.49172081       13.64947613
C           8.85935514       18.56629310       13.39289688
C           9.12695438       17.21343684       13.12285815
C          10.45809051       16.77402527       13.23266083
C          10.97610544       15.44370702       13.00736062
N          12.41151812       15.62905735       12.96550790
N          10.29689322       14.26719523       13.01980130
C          17.37292861       16.67190081       12.37995626
C          19.01170995       18.39581296       12.09377260
C          18.10952819       19.35904543       12.59716500
C          16.79434545       19.00681202       12.93378149
C          16.45727521       17.66201672       12.77660948
C          15.17424393       16.96308894       12.89479233
N          15.33586034       15.65129983       12.59285502
N          13.95861817       17.67463435       13.04096729
H          13.06306187       14.86592865       12.87818574
H          14.61089719       13.70009607       12.90215883
H           9.71509353       20.52768560       13.95876804
H          12.05275633       19.81085292       13.62754649
H          16.04729330       19.69774688       13.33730318
H          18.46352951       20.39815864       12.60652983
H          19.97837861       18.80591435       11.80178646
H          19.38836022       16.28976628       11.65034541
H          19.21577034       12.23303029       12.22093123
H          20.04246201        9.80702143       12.72226518
H          18.20891601        8.16018153       13.22993844
H          15.86406284        8.77660048       13.44054254
H          11.70697617        8.53178297       13.64468922
H           9.27201578        7.91024917       13.60871033
H           7.50297156        9.66230768       13.40389543
H           8.11286224       11.99990084       13.11797023
H           8.31948360       16.48034905       13.02683055
H           7.81781920       18.92091002       13.37912926
C          13.20825564       14.02268697       22.05516634
C          14.67951141       13.90207679       22.40627378
C          15.55602349       15.01687201       22.35538604
C          14.96034857       16.40653888       21.90541308
C          13.58866219       16.50972548       21.60391678
C          12.73509723       15.24233489       21.68518554
C          12.75656643       12.79233399       21.47813890
C          13.90573732       11.90260166       21.39917830
C          15.11536246       12.56081276       21.98832870
C          16.35521803       12.43286547       21.40722263
C          16.79680914       14.86367570       21.67643380
C          15.90370712       17.09502631       21.03046983
C          15.41113214       17.75761573       19.87294599
C          13.98250717       17.88077708       19.53490619
C          13.11076468       17.24878038       20.48112643
C          11.98178440       16.50288319       19.84253877
C          11.72594715       15.30940664       20.62277124
C          11.27475933       14.12970497       19.97729788
C          11.88923306       12.83702325       20.40287991
C          14.03528166       11.05976777       20.30192100
C          13.09371932       11.10513961       19.19060940
C          12.04549771       11.99684964       19.31436310
C          11.56345277       12.78325500       18.16795421
C          11.05252061       14.09670804       18.55520236
C          11.39196177       15.21957802       17.83394473
C          11.77846463       16.52819714       18.46243648
C          12.65698349       17.12673251       17.53459837
C          13.80466432       17.81563830       18.04654005
C          17.01509326       16.07900602       20.88264128
C          16.46099959       15.94853061       16.24749772
C          17.43631147       15.84623116       17.30278980
C          17.94843809       14.62922566       17.64790794
C          17.56324914       13.39145791       17.07230084
C          16.51417904       13.49007366       16.07100414
C          14.54122781       14.80939678       15.41784997
C          14.16555780       16.14726109       15.85764810
C          15.30383820       16.84106204       16.32654890
C          15.11023433       17.65646911       17.45631900
C          16.06497874       17.59731962       18.55169867
C          17.20183262       16.74754268       18.46100410
C          18.09678893       14.63198941       19.14599347
C          17.87309003       13.48095323       19.94697883
C          17.41142553       12.26038328       19.33217652
C          17.27423950       12.23916543       17.91468802
C          16.12227592       11.60926660       17.39692786
C          15.60167850       12.39181286       16.28905359
C          14.27403301       12.42024386       16.00290777
C          13.71958581       13.70563504       15.54203647
C          12.86170884       16.28623855       16.31223026
C          12.03776839       15.10871190       16.50765609
C          12.43937795       13.86025404       16.19219776
C          12.14790555       12.60020291       16.93716605
C          13.33819035       11.72063890       16.82534442
C          13.76450937       11.01118116       17.94250437
C          15.16224703       10.88462100       18.20899692
C          15.36070945       10.93758693       19.68889123
C          16.53154595       11.56962213       20.20499986
C          17.62419203       15.92086229       19.60497771
C          17.21360179       13.60832521       21.26638792
C          16.01353654       14.68707604       15.65073852
176
MD Time 826.83
C          10.81988423       13.16096105       10.11465744
C           8.94986063       11.57972133       10.17023389
C           9.89888671       10.51144943       10.13647606
C          11.30635255       10.72734136       10.10521876
C          11.78116627       12.09282786       10.13326252
C          13.10768485       12.70973631       10.04958519
N          12.99054259       14.08215267       10.02477435
N          14.24010384       11.94353171        9.86527858
N          17.64165936       15.33027131        9.08168497
C          15.38682998       12.56545744        9.55620579
C          16.61402587       11.86437414        9.22161103
C          16.94826062       10.50848678        9.31412577
C          18.32816600       10.22410366        9.18562472
C          19.29041151       11.20336169        8.93102400
C          18.91513106       12.53785104        8.72885453
C          17.63042200       12.87303886        9.07282584
C          17.00088073       14.15611506        9.21365306
N          15.63856650       13.94130695        9.51511185
C          11.59097110       14.44401881       10.05174946
C           9.42688341       12.91306328       10.21473385
C          17.13921485       16.54344218        9.17090574
C          19.22078559       18.04335603        8.60255965
C          13.40990557       18.37934609       10.08224737
C          12.15342819       19.04699778       10.23403125
C          11.80523002       20.42805835       10.26603457
C          10.46992054       20.89070400       10.18000824
C           9.39617517       19.87249283       10.19390808
C           9.77170789       18.52390163       10.20300980
C          11.11689210       18.10073314       10.23742117
C          11.74290092       16.77121724       10.12353671
N          13.11946990       17.04825212       10.02821477
N          11.03677424       15.65422062       10.19063709
C          17.91887919       17.76195713        9.01148739
C          19.70893292       19.38109406        8.76098144
C          18.88388085       20.42654321        9.11596001
C          17.55540219       20.19586871        9.45116375
C          17.10882431       18.84057486        9.42072550
C          15.79521000       18.22408917        9.72704431
N          15.81130141       16.84192287        9.51838779
N          14.66505390       18.96045395       10.00964745
H          13.86251650       16.37432639        9.79708752
H          14.94202310       14.70493480        9.57362992
H          10.16319293       21.94011493       10.33746691
H          12.64441985       21.14995952       10.29156813
H          16.89287935       20.95618870        9.83918691
H          19.24899825       21.45877122        9.07342775
H          20.69835116       19.52531343        8.33983233
H          19.80986812       17.17151783        8.24484229
H          19.58756704       13.36340500        8.60169192
H          20.31345389       10.82878644        8.71137128
H          18.77594245        9.22910275        9.29712872
H          16.19303875        9.75965337        9.49730040
H          11.97190936        9.86896203        9.89533943
H           9.55466443        9.48864061       10.13060062
H           7.89340165       11.36467182       10.21069757
H           8.63755285       13.73381350       10.25956556
H           8.94697454       17.79126610       10.25007965
H           8.37630250       20.18759341       10.20322639
C          10.30016941       11.66554381       13.14264897
C           8.54856901        9.94857204       13.36939079
C           9.50597157        8.93922642       13.53490242
C          10.90702298        9.28537626       13.49728078
C          11.25892572       10.64743057       13.34890927
C          12.55172033       11.44074390       13.26549180
N          12.30708562       12.83384153       13.24412111
N          13.76757079       10.89032544       13.17700015
N          17.29563465       14.24172852       12.25739947
C          14.92122684       11.56486886       13.01407020
C          16.20590638       10.87896183       12.95558724
C          16.60716049        9.55298786       13.20667074
C          17.91829042        9.14312156       12.98430927
C          18.96425693       10.13407815       12.75603016
C          18.53231280       11.44284142       12.51318798
C          17.18906607       11.75484531       12.58517788
C          16.61933776       13.07744202       12.43170909
N          15.22709366       12.89689036       12.71545107
C          10.90950620       13.03541020       13.08120740
C           8.91716655       11.29414814       13.26377829
C          16.65052077       15.41343075       12.34453045
C          18.70243219       17.01320212       12.01300971
C          12.77950979       17.03147497       13.07214847
C          11.52739310       17.74764870       13.26785556
C          11.21550119       19.07700348       13.50702394
C           9.89623870       19.48813660       13.64733597
C           8.85955405       18.56911724       13.39498961
C           9.13078799       17.21429857       13.12151544
C          10.45630876       16.77468667       13.23332594
C          10.97630401       15.44575389       13.00679748
N          12.41292781       15.62874387       12.96638860
N          10.29571949       14.26789756       13.01813714
C          17.37765358       16.67533464       12.38225277
C          19.01001754       18.39483888       12.09770873
C          18.10700177       19.35728889       12.59965823
C          16.79433001       19.00874430       12.93315918
C          16.45740295       17.66267396       12.78087704
C          15.17068616       16.96100438       12.89395623
N          15.33867491       15.65344518       12.59356394
N          13.96043850       17.67457526       13.04235401
H          13.05690122       14.87011687       12.87888200
H          14.60455630       13.70075899       12.89145299
H           9.72119243       20.51754576       13.97165122
H          12.04932661       19.79864553       13.60671030
H          16.04178044       19.69919318       13.32989011
H          18.46800590       20.39214837       12.59876252
H          19.97978827       18.80579248       11.80227634
H          19.38676645       16.28054167       11.64794430
H          19.21005754       12.23768643       12.21818859
H          20.03738492        9.80021115       12.71632344
H          18.20876566        8.15700821       13.23338170
H          15.86537264        8.78251259       13.42936003
H          11.70708641        8.53885515       13.64745013
H           9.26440660        7.90459105       13.59189773
H           7.49862623        9.66309596       13.41615240
H           8.11131446       11.99679317       13.12041363
H           8.31974614       16.48439861       13.02805373
H           7.81781896       18.91361226       13.37901676
C          13.20571488       14.02298242       22.05903033
C          14.67992205       13.89911800       22.40911491
C          15.55750204       15.01698003       22.35660364
C          14.96074586       16.41166791       21.90742096
C          13.59178778       16.51194681       21.60230628
C          12.73357438       15.24487800       21.68492379
C          12.75601339       12.78941914       21.48087019
C          13.90271757       11.90446316       21.40140488
C          15.11960469       12.55688231       21.98490450
C          16.35570219       12.43389425       21.40666827
C          16.79479088       14.85907821       21.67799784
C          15.90079062       17.09390229       21.03233306
C          15.40959800       17.75692162       19.87269227
C          13.98067323       17.87970097       19.53271763
C          13.11122126       17.24954094       20.48167922
C          11.98257522       16.50743915       19.84456431
C          11.72552392       15.30959907       20.62126224
C          11.27637013       14.12704089       19.97485937
C          11.88844443       12.83364684       20.40036396
C          14.03648405       11.05689149       20.29995327
C          13.09244401       11.10592881       19.18901598
C          12.04399352       11.99459746       19.31412639
C          11.56365718       12.78241569       18.16990274
C          11.05122727       14.09362110       18.55889909
C          11.39470681       15.22032179       17.83473987
C          11.77649047       16.53272898       18.46795226
C          12.65956713       17.12477727       17.53851735
C          13.80411566       17.81630692       18.04587278
C          17.01613244       16.07714694       20.88494909
C          16.46387551       15.94918914       16.25104507
C          17.43794385       15.84380338       17.30344497
C          17.95077181       14.63063771       17.64794001
C          17.56315302       13.38815234       17.07368042
C          16.51270479       13.49026268       16.07553540
C          14.53999526       14.81061055       15.41936337
C          14.16984434       16.14945074       15.85837517
C          15.30055490       16.84135605       16.32911955
C          15.10798779       17.65504154       17.45741364
C          16.06465492       17.59792830       18.55337421
C          17.20108167       16.74556210       18.46248027
C          18.09483888       14.63314074       19.15018001
C          17.87439946       13.47978802       19.94604088
C          17.40979774       12.25838259       19.32929508
C          17.27397220       12.23993058       17.91306330
C          16.12637898       11.61278955       17.39528062
C          15.60369315       12.39382139       16.28898060
C          14.27641971       12.42753796       16.00321144
C          13.72217678       13.70870559       15.54447456
C          12.85735226       16.28794646       16.31474963
C          12.03821522       15.11078244       16.50659593
C          12.44163514       13.86119830       16.19005929
C          12.14760512       12.59651172       16.93606972
C          13.33926693       11.71664321       16.82492848
C          13.76433156       11.01198809       17.94192838
C          15.16427349       10.88620698       18.20704295
C          15.36133441       10.93824720       19.68775562
C          16.53216460       11.56537466       20.20581280
C          17.62370945       15.92302343       19.60310610
C          17.21060416       13.61096242       21.26759385
C          16.01796964       14.68835571       15.65243874
176
MD Time 847.50
C          10.82021141       13.16135427       10.11272506
C           8.95118229       11.58216563       10.16637329
C           9.90384077       10.50755875       10.13494969
C          11.30581096       10.73006413       10.10655299
C          11.78172580       12.09436734       10.13392585
C          13.10953503       12.71432862       10.05106294
N          12.98957874       14.08206500       10.02287172
N          14.24220867       11.94242451        9.86600283
N          17.64297227       15.33231574        9.07807292
C          15.38607511       12.56704597        9.55388726
C          16.61523830       11.86536055        9.21604762
C          16.94877154       10.51050618        9.31339666
C          18.32741196       10.22173880        9.18446723
C          19.28868935       11.20018375        8.93014454
C          18.90878578       12.53604195        8.72497028
C          17.63118596       12.87414751        9.06746076
C          16.99884823       14.15736642        9.21204028
N          15.63907715       13.94012077        9.51368153
C          11.59460995       14.44480353       10.05275384
C           9.42647135       12.91277990       10.21192662
C          17.13801505       16.54692603        9.16630158
C          19.22035599       18.04211318        8.60328763
C          13.40973029       18.38017776       10.08318327
C          12.15119102       19.04554325       10.23286942
C          11.80726754       20.42807038       10.26752394
C          10.47028996       20.89307719       10.18202626
C           9.39454688       19.87888893       10.19556286
C           9.77506259       18.52152319       10.20133199
C          11.11664253       18.09697636       10.23938679
C          11.74361738       16.77227387       10.12218331
N          13.11788630       17.04706834       10.02979232
N          11.03366433       15.65427107       10.18898939
C          17.91841496       17.76304896        9.01125827
C          19.71192498       19.38260626        8.75679903
C          18.88151347       20.42520675        9.11580758
C          17.55810467       20.19304136        9.44988974
C          17.10735849       18.84155166        9.42105571
C          15.79575263       18.22694830        9.72812389
N          15.81237510       16.84413094        9.51548124
N          14.66460096       18.96113037       10.01373510
H          13.86870454       16.38166503        9.79506782
H          14.93883038       14.72162000        9.56440673
H          10.15919487       21.93897575       10.33966295
H          12.64200297       21.14605669       10.30360732
H          16.89837863       20.96110030        9.82944143
H          19.24722002       21.45364542        9.07239229
H          20.70709459       19.53224341        8.35525914
H          19.79924907       17.17675056        8.24952313
H          19.60247122       13.36055305        8.60392687
H          20.30048566       10.83146621        8.71201343
H          18.78476327        9.22636624        9.29976826
H          16.19994979        9.75508759        9.49366990
H          11.96898454        9.88018489        9.90659004
H           9.55039917        9.48251846       10.11638764
H           7.88909217       11.36911620       10.20964285
H           8.65265014       13.71896326       10.24769185
H           8.95826910       17.79385231       10.25465622
H           8.37723742       20.18152165       10.20338374
C          10.29622256       11.66806721       13.14280944
C           8.54891630        9.94832496       13.36624365
C           9.50460859        8.93927565       13.53234297
C          10.90525448        9.28584093       13.49639954
C          11.25947175       10.64600346       13.34911342
C          12.55222430       11.44342132       13.26603572
N          12.31023146       12.83381368       13.24049451
N          13.76871587       10.88862767       13.17966173
N          17.29625965       14.24126344       12.25430000
C          14.92065443       11.56662557       13.01013366
C          16.20193058       10.87967281       12.95600907
C          16.60922596        9.55518857       13.20575965
C          17.91512097        9.14159969       12.98517021
C          18.96737505       10.13381636       12.76112497
C          18.53377728       11.43873988       12.50967605
C          17.18994276       11.75540530       12.58291296
C          16.61876855       13.07757778       12.43538504
N          15.22617952       12.89586728       12.71592150
C          10.91010519       13.03371652       13.07876655
C           8.91700100       11.29638163       13.26273472
C          16.65080339       15.41161512       12.34564838
C          18.70204357       17.01545236       12.01587847
C          12.77855738       17.03138152       13.07280274
C          11.52962403       17.74706875       13.26797222
C          11.21594884       19.07585262       13.50995855
C           9.89513750       19.48454226       13.64518672
C           8.85965671       18.57194275       13.39705551
C           9.13459649       17.21517757       13.12041947
C          10.45446423       16.77543416       13.23370975
C          10.97684180       15.44764568       13.00640747
N          12.41412596       15.62877001       12.96729155
N          10.29466044       14.26855183       13.01648767
C          17.38268535       16.67882137       12.38445106
C          19.00841455       18.39382675       12.10170949
C          18.10450264       19.35556062       12.60206518
C          16.79429172       19.01065978       12.93259201
C          16.45738876       17.66336399       12.78519321
C          15.16686776       16.95934769       12.89302458
N          15.34113643       15.65534033       12.59435269
N          13.96246854       17.67416357       13.04378266
H          13.05213040       14.87254624       12.87918234
H          14.59874962       13.70091613       12.87952378
H           9.72657513       20.50738714       13.98395128
H          12.04505289       19.78582644       13.58571977
H          16.03662164       19.70091945       13.32194180
H          18.47187722       20.38612721       12.59155256
H          19.98153422       18.80466122       11.80249891
H          19.38661168       16.26981770       11.64477891
H          19.20512076       12.24278821       12.21561312
H          20.03000344        9.79457362       12.71029202
H          18.20930020        8.15047862       13.23695959
H          15.86623730        8.78871795       13.41861248
H          11.70632537        8.54636367       13.64989378
H           9.25556022        7.89651676       13.57559757
H           7.49368165        9.66417616       13.42825213
H           8.10947274       11.99538303       13.12302468
H           8.32018221       16.48861154       13.02875540
H           7.81805262       18.90623603       13.37916356
C          13.20364015       14.02326025       22.06324933
C          14.68019325       13.89619851       22.41197451
C          15.55842928       15.01732216       22.35771241
C          14.96114012       16.41654549       21.90951083
C          13.59487143       16.51375701       21.60084156
C          12.73191482       15.24782036       21.68453089
C          12.75565802       12.78650804       21.48365950
C          13.89982478       11.90626760       21.40370076
C          15.12336164       12.55313284       21.98153338
C          16.35642804       12.43484302       21.40595044
C          16.79277465       14.85483324       21.67964263
C          15.89794711       17.09234902       21.03414841
C          15.40806523       17.75624350       19.87214171
C          13.97893729       17.87853538       19.53078154
C          13.11151254       17.25034893       20.48169496
C          11.98340500       16.51214611       19.84682177
C          11.72511292       15.30972414       20.61970047
C          11.27813854       14.12440039       19.97278475
C          11.88733414       12.83064742       20.39821735
C          14.03789433       11.05398031       20.29787721
C          13.09106672       11.10669681       19.18767622
C          12.04216206       11.99235524       19.31347917
C          11.56372813       12.78135132       18.17167386
C          11.05009054       14.09038657       18.56276582
C          11.39730650       15.22139751       17.83535773
C          11.77427128       16.53673637       18.47336077
C          12.66263745       17.12311165       17.54226195
C          13.80333658       17.81692186       18.04545510
C          17.01727596       16.07539334       20.88694359
C          16.46686253       15.94968878       16.25462366
C          17.43899257       15.84220912       17.30363985
C          17.95341585       14.63130754       17.64856536
C          17.56302933       13.38515529       17.07507693
C          16.51138323       13.49023055       16.08008296
C          14.53920791       14.81194265       15.42083012
C          14.17381717       16.15134878       15.85873806
C          15.29748086       16.84173789       16.33188445
C          15.10582214       17.65366071       17.45863728
C          16.06467852       17.59842917       18.55518055
C          17.20033176       16.74337955       18.46396803
C          18.09288278       14.63423125       19.15427819
C          17.87569614       13.47882360       19.94514615
C          17.40843036       12.25643592       19.32613792
C          17.27384408       12.24067423       17.91169144
C          16.12996815       11.61594005       17.39361472
C          15.60609273       12.39555142       16.28889079
C          14.27868354       12.43493771       16.00332366
C          13.72471156       13.71164486       15.54703268
C          12.85294657       16.28983471       16.31762955
C          12.03833706       15.11312060       16.50594778
C          12.44399904       13.86160222       16.18757181
C          12.14748880       12.59303835       16.93487198
C          13.34004891       11.71285326       16.82443906
C          13.76428211       11.01264859       17.94119812
C          15.16679451       10.88798751       18.20523455
C          15.36211630       10.93886546       19.68640048
C          16.53242351       11.56111048       20.20677487
C          17.62316567       15.92538449       19.60154221
C          17.20778725       13.61336270       21.26847648
C          16.02211745       14.69002277       15.65404808
176
MD Time 868.17
C          10.82050379       13.16179385       10.11087595
C           8.95285132       11.58457463       10.16257606
C           9.90882601       10.50383991       10.13337027
C          11.30521939       10.73305732       10.10781188
C          11.78202952       12.09569594       10.13450850
C          13.11124874       12.71877167       10.05248609
N          12.98855047       14.08220426       10.02093544
N          14.24419297       11.94152308        9.86670357
N          17.64438592       15.33409702        9.07436701
C          15.38521074       12.56852515        9.55156772
C          16.61649784       11.86649013        9.21071601
C          16.94948844       10.51258884        9.31260669
C          18.32664085       10.21918287        9.18337191
C          19.28702924       11.19704610        8.92899446
C          18.90274653       12.53423058        8.72131469
C          17.63153805       12.87517049        9.06197636
C          16.99680275       14.15887522        9.21039621
N          15.63968861       13.93904254        9.51213926
C          11.59839570       14.44504201       10.05390396
C           9.42593947       12.91251591       10.20897662
C          17.13659446       16.55042223        9.16170905
C          19.21999879       18.04086524        8.60414437
C          13.40997565       18.38126201       10.08415941
C          12.14876375       19.04454857       10.23169407
C          11.80936721       20.42822360       10.26893840
C          10.47047415       20.89505393       10.18426758
C           9.39362038       19.88537776       10.19717638
C           9.77820587       18.51913738       10.19972896
C          11.11634603       18.09314513       10.24124636
C          11.74420089       16.77367789       10.12090848
N          13.11632586       17.04556307       10.03127356
N          11.03066279       15.65422259       10.18718156
C          17.91804094       17.76434804        9.01106398
C          19.71500177       19.38363715        8.75228359
C          18.87914973       20.42406967        9.11564930
C          17.56061232       20.18985448        9.44872166
C          17.10570403       18.84268279        9.42146484
C          15.79598230       18.22991297        9.72915807
N          15.81353419       16.84644981        9.51260330
N          14.66403261       18.96166465       10.01778839
H          13.87461911       16.38879415        9.79399404
H          14.93660132       14.73573596        9.55607909
H          10.15637689       21.93746801       10.34094726
H          12.63908742       21.14201297       10.31565553
H          16.90320103       20.96687692        9.81947211
H          19.24577468       21.44860727        9.07180735
H          20.71696549       19.54020662        8.37116425
H          19.78954854       17.18313135        8.25425694
H          19.61861686       13.35780886        8.60533758
H          20.28753561       10.83512326        8.71322801
H          18.79166598        9.22330756        9.30252067
H          16.20617080        9.74976263        9.49033926
H          11.96644215        9.89193408        9.91896398
H           9.54573527        9.47566029       10.10205292
H           7.88408146       11.37342662       10.20858230
H           8.66994565       13.70344536       10.23572610
H           8.97019307       17.79583458       10.25888654
H           8.37548731       20.17599583       10.20348196
C          10.29171021       11.67062918       13.14317759
C           8.54923894        9.94801448       13.36321611
C           9.50368822        8.93949723       13.52965356
C          10.90337688        9.28638895       13.49557167
C          11.26021137       10.64486295       13.34917565
C          12.55264043       11.44613000       13.26661618
N          12.31327370       12.83370633       13.23671029
N          13.76988930       10.88698577       13.18241202
N          17.29672430       14.24054844       12.25118062
C          14.92015209       11.56821254       13.00613070
C          16.19785776       10.88003836       12.95650630
C          16.61107201        9.55723741       13.20469556
C          17.91226038        9.14050078       12.98620958
C          18.97028364       10.13331754       12.76614334
C          18.53554512       11.43457175       12.50610612
C          17.19097177       11.75641343       12.58056905
C          16.61806571       13.07775894       12.43916758
N          15.22525695       12.89498749       12.71643247
C          10.91098144       13.03191663       13.07646122
C           8.91702293       11.29864134       13.26151099
C          16.65139027       15.40996653       12.34681346
C          18.70146551       17.01790895       12.01884426
C          12.77756589       17.03117543       13.07350698
C          11.53165087       17.74615812       13.26812088
C          11.21664312       19.07480651       13.51291889
C           9.89404033       19.48096299       13.64305471
C           8.85966883       18.57470926       13.39907706
C           9.13833297       17.21609504       13.11957360
C          10.45260925       16.77625564       13.23381113
C          10.97770836       15.44936062       13.00619110
N          12.41506978       15.62917753       12.96822042
N          10.29372981       14.26915388       13.01485368
C          17.38794089       16.68232597       12.38656920
C          19.00693927       18.39279818       12.10576281
C          18.10206583       19.35386694       12.60437133
C          16.79418969       19.01254502       12.93209119
C          16.45723859       17.66407775       12.78954667
C          15.16284498       16.95814456       12.89200444
N          15.34323113       15.65695669       12.59521540
N          13.96468044       17.67339454       13.04525178
H          13.04920431       14.87272348       12.87903495
H          14.59362830       13.70040352       12.86640037
H           9.73114240       20.49749811       13.99564305
H          12.04060641       19.77318646       13.56484606
H          16.03190005       19.70291988       13.31345545
H          18.47509896       20.38028951       12.58496834
H          19.98331174       18.80245036       11.80257010
H          19.38730049       16.25836511       11.64119416
H          19.20094545       12.24809916       12.21323324
H          20.02086714        9.79002054       12.70423739
H          18.21029709        8.14115848       13.24052358
H          15.86644098        8.79493728       13.40842614
H          11.70484360        8.55403793       13.65203203
H           9.24574268        7.88683385       13.55982763
H           7.48856883        9.66565439       13.44007602
H           8.10723681       11.99579298       13.12578360
H           8.32082115       16.49294973       13.02891333
H           7.81831341       18.89896163       13.37960978
C          13.20202828       14.02352564       22.06780638
C          14.68033633       13.89333980       22.41484529
C          15.55877461       15.01787878       22.35872637
C          14.96153400       16.42114097       21.91169373
C          13.59788163       16.51515061       21.59952812
C          12.73013851       15.25112530       21.68401861
C          12.75546865       12.78363177       21.48648791
C          13.89710226       11.90795483       21.40601706
C          15.12657081       12.54959860       21.97825357
C          16.35741752       12.43568981       21.40505057
C          16.79076564       14.85100682       21.68136332
C          15.89520673       17.09037931       21.03589181
C          15.40653701       17.75557861       19.87130481
C          13.97731440       17.87728780       19.52911153
C          13.11164469       17.25121478       20.48117534
C          11.98425526       16.51697147       19.84932462
C          11.72472177       15.30978756       20.61809413
C          11.28006574       14.12180078       19.97111149
C          11.88592262       12.82803442       20.39648829
C          14.03948189       11.05106981       20.29572678
C          13.08961903       11.10742156       19.18659480
C          12.04000241       11.99012321       19.31242149
C          11.56367098       12.78005417       18.17322598
C          11.04912296       14.08705217       18.56673393
C          11.39973515       15.22277245       17.83583465
C          11.77181949       16.54020904       18.47861263
C          12.66615701       17.12173320       17.54582661
C          13.80233603       17.81748657       18.04529649
C          17.01850956       16.07375849       20.88861508
C          16.46993275       15.95003035       16.25821253
C          17.43946191       15.84146316       17.30338835
C          17.95636573       14.63120021       17.64978949
C          17.56289773       13.38251960       17.07648913
C          16.51023692       13.49000705       16.08462994
C          14.53891440       14.81342246       15.42224776
C          14.17738000       16.15294309       15.85874636
C          15.29466953       16.84220534       16.33484245
C          15.10375090       17.65233853       17.46000079
C          16.06504786       17.59881327       18.55710807
C          17.19957407       16.74101651       18.46545628
C          18.09093331       14.63525454       19.15824892
C          17.87696192       13.47805648       19.94430952
C          17.40733004       12.25455432       19.32274587
C          17.27387340       12.24138737       17.91058792
C          16.13299939       11.61868057       17.39193498
C          15.60884943       12.39700042       16.28877668
C          14.28081950       12.44238510       16.00327301
C          13.72717271       13.71444282       15.54970514
C          12.84857193       16.29190846       16.32083949
C          12.03812962       15.11569421       16.50572096
C          12.44644212       13.86147526       16.18476177
C          12.14755231       12.58980435       16.93358424
C          13.34054270       11.70931681       16.82383900
C          13.76438393       11.01315268       17.94032232
C          15.16980059       10.88996367       18.20357224
C          15.36304628       10.93943388       19.68482206
C          16.53234839       11.55686021       20.20787255
C          17.62255608       15.92792781       19.60033321
C          17.20517761       13.61546228       21.26900517
C          16.02595796       14.69207083       15.65556574
176
MD Time 888.84
C          10.82077336       13.16227654       10.10911308
C           8.95483961       11.58689677       10.15884654
C           9.91376909       10.50029528       10.13173152
C          11.30457015       10.73634660       10.10900813
C          11.78207709       12.09683459       10.13501312
C          13.11282089       12.72301597       10.05385227
N          12.98747593       14.08259243       10.01896900
N          14.24604102       11.94084425        9.86738277
N          17.64588124       15.33561737        9.07056962
C          15.38425663       12.56987395        9.54924242
C          16.61778433       11.86776058        9.20562406
C          16.95040409       10.51470942        9.31175246
C          18.32587559       10.21642448        9.18234317
C          19.28534243       11.19399261        8.92758314
C          18.89714646       12.53245231        8.71787071
C          17.63143272       12.87612750        9.05638410
C          16.99477528       14.16064476        9.20870959
N          15.64035021       13.93814996        9.51048534
C          11.60228302       14.44474765       10.05519169
C           9.42539745       12.91218808       10.20587301
C          17.13496701       16.55390263        9.15713141
C          19.21969478       18.03969348        8.60514312
C          13.41061852       18.38258625       10.08518134
C          12.14617108       19.04402306       10.23051108
C          11.81147825       20.42848842       10.27028272
C          10.47047465       20.89662141       10.18672984
C           9.39344171       19.89186939       10.19874319
C           9.78114749       18.51683969       10.19820882
C          11.11601087       18.08927524       10.24298840
C          11.74463487       16.77538118       10.11971705
N          13.11481323       17.04376178       10.03265479
N          11.02779533       15.65407558       10.18521273
C          17.91774945       17.76586582        9.01090553
C          19.71813107       19.38418596        8.74746655
C          18.87684491       20.42309741        9.11546257
C          17.56288122       20.18634534        9.44767034
C          17.10387227       18.84395527        9.42195041
C          15.79589359       18.23297553        9.73014712
N          15.81476503       16.84888055        9.50975561
N          14.66335180       18.96205867       10.02180362
H          13.88016100       16.39560714        9.79387832
H          14.93592635       14.74645222        9.54867013
H          10.15476818       21.93582945       10.34136697
H          12.63605629       21.13812935       10.32766463
H          16.90738753       20.97334631        9.80927896
H          19.24470438       21.44394794        9.07168984
H          20.72790184       19.54909238        8.38744040
H          19.78133862       17.18987328        8.25872612
H          19.63514939       13.35447508        8.60602691
H          20.27561370       10.83942237        8.71481839
H          18.79642159        9.22015022        9.30535601
H          16.21166176        9.74384058        9.48732313
H          11.96479947        9.90356896        9.93228625
H           9.54096322        9.46856769       10.08767351
H           7.87890403       11.37764961       10.20745768
H           8.68818433       13.68855816       10.22377857
H           8.98212048       17.79675821       10.26276051
H           8.37083323       20.17117679       10.20353051
C          10.28669980       11.67320462       13.14375166
C           8.54949878        9.94765221       13.36032037
C           9.50318046        8.93981078       13.52682823
C          10.90139200        9.28703499       13.49479524
C          11.26111141       10.64404888       13.34909387
C          12.55297993       11.44883741       13.26723144
N          12.31619438       12.83352151       13.23276909
N          13.77107843       10.88541390       13.18524620
N          17.29702287       14.23958278       12.24804990
C          14.91970271       11.56960370       13.00208077
C          16.19375597       10.88008858       12.95705697
C          16.61266615        9.55914307       13.20347789
C          17.90977237        9.13977145       12.98744266
C          18.97291521       10.13257585       12.77107168
C          18.53760609       11.43038082       12.50248139
C          17.19212157       11.75783265       12.57816667
C          16.61724274       13.07798227       12.44303766
N          15.22432526       12.89427259       12.71697681
C          10.91212192       13.03004472       13.07429132
C           8.91720719       11.30091076       13.26011164
C          16.65230072       15.40852778       12.34802292
C          18.70078020       17.02048895       12.02186639
C          12.77656182       17.03085636       13.07425948
C          11.53344614       17.74492993       13.26830977
C          11.21752911       19.07378614       13.51587072
C           9.89297806       19.47742553       13.64096569
C           8.85959645       18.57735667       13.40103749
C           9.14195162       17.21707127       13.11898018
C          10.45079569       16.77713703       13.23362943
C          10.97888757       15.45087791       13.00614858
N          12.41573634       15.62998358       12.96917634
N          10.29294439       14.26969943       13.01323607
C          17.39333271       16.68581325       12.38862788
C          19.00562750       18.39177498       12.10985762
C          18.09972597       19.35221403       12.60656369
C          16.79398563       19.01438785       12.93166625
C          16.45695892       17.66480602       12.79392624
C          15.15867633       16.95741275       12.89090231
N          15.34494993       15.65826840       12.59614574
N          13.96704237       17.67226830       13.04676051
H          13.04833139       14.87044959       12.87842477
H          14.58926922       13.69914952       12.85214692
H           9.73481174       20.48814053       14.00670251
H          12.03672461       19.76155877       13.54432645
H          16.02766652       19.70520776       13.30444522
H          18.47764198       20.37483742       12.57906768
H          19.98485312       18.79911922       11.80259878
H          19.38820791       16.24699895       11.63756003
H          19.19750206       12.25335893       12.21108159
H          20.01067779        9.78639524       12.69820906
H          18.21146891        8.12985526       13.24386967
H          15.86579154        8.80090345       13.39891125
H          11.70282668        8.56158286       13.65388640
H           9.23527845        7.87650610       13.54461394
H           7.48373338        9.66762916       13.45149985
H           8.10461347       11.99803225       13.12868951
H           8.32168991       16.49737531       13.02850945
H           7.81839245       18.89196530       13.38039334
C          13.20087112       14.02378841       22.07268130
C          14.68036127       13.89056246       22.41771965
C          15.55851267       15.01862896       22.35965875
C          14.96192819       16.42542470       21.91398081
C          13.60078606       16.51612653       21.59836659
C          12.72826857       15.25474831       21.68340232
C          12.75541376       12.78082263       21.48933614
C          13.89459228       11.90946703       21.40830571
C          15.12917918       12.54631169       21.97509932
C          16.35868361       12.43641334       21.40395466
C          16.78876840       14.84765826       21.68315501
C          15.89259823       17.08800915       21.03753762
C          15.40501833       17.75492256       19.87019769
C          13.97581815       17.87596715       19.52771784
C          13.11162632       17.25214559       20.48013118
C          11.98510477       16.52188145       19.85208009
C          11.72435902       15.30979677       20.61645299
C          11.28215252       14.11925821       19.96987321
C          11.88423259       12.82581117       20.39521943
C          14.04121627       11.04819536       20.29353503
C          13.08813280       11.10808272       19.18577178
C          12.03751526       11.98790317       19.31096097
C          11.56349050       12.77851976       18.17451910
C          11.04833787       14.08366578       18.57073507
C          11.40196642       15.22440927       17.83620928
C          11.76915213       16.54314327       18.48366058
C          12.67008013       17.12063417       17.54921023
C          13.80112722       17.81800650       18.04540481
C          17.01981643       16.07225488       20.88996033
C          16.47305560       15.95022006       16.26178861
C          17.43937129       15.84155931       17.30271546
C          17.95961062       14.63030442       17.65161051
C          17.56277911       13.38028995       17.07791751
C          16.50928670       13.48962742       16.08915707
C          14.53915596       14.81507647       15.42361259
C          14.18044572       16.15422776       15.85841154
C          15.29216884       16.84275498       16.33798892
C          15.10178711       17.65108773       17.46151584
C          16.06575677       17.59907460       18.55914641
C          17.19880063       16.73849622       18.46693337
C          18.08900327       14.63620595       19.16205643
C          17.87817990       13.47747982       19.94354409
C          17.40650098       12.25274676       19.31916538
C          17.27407589       12.24205952       17.90976247
C          16.13543921       11.62097724       17.39024786
C          15.61192884       12.39816664       16.28862817
C          14.28282683       12.44982089       16.00308821
C          13.72954563       13.71709178       15.55248402
C          12.84430280       16.29417070       16.32434887
C          12.03759392       15.11846333       16.50591985
C          12.44893140       13.86084017       16.18165937
C          12.14779029       12.58682900       16.93221869
C          13.34075746       11.70607710       16.82309476
C          13.76465826       11.01349270       17.93931157
C          15.17327441       10.89213457       18.20205559
C          15.36411417       10.93994531       19.68301901
C          16.53196871       11.55265476       20.20908907
C          17.62187981       15.93063306       19.59951901
C          17.20279882       13.61720447       21.26915408
C          16.02947555       14.69448530       15.65699163
176
MD Time 909.51
C          10.82103257       13.16279832       10.10743871
C           8.95711254       11.58908253       10.15518794
C           9.91859832       10.49692074       10.13002582
C          11.30385720       10.73995391       10.11015472
C          11.78187173       12.09780773       10.13544261
C          13.11424608       12.72701628       10.05515960
N          12.98637332       14.08324781       10.01697594
N          14.24773821       11.94040287        9.86804239
N          17.64743874       15.33688470        9.06668270
C          15.38323409       12.57107437        9.54690605
C          16.61907636       11.86916761        9.20077807
C          16.95150522       10.51683773        9.31083222
C          18.32513637       10.21345850        9.18138395
C          19.28353760       11.19106530        8.92592166
C          18.89210825       12.53073579        8.71462256
C          17.63083220       12.87704022        9.05069391
C          16.99279539       14.16267400        9.20696825
N          15.64102459       13.93750210        9.50871928
C          11.60622848       14.44393931       10.05660821
C           9.42497230       12.91169756       10.20260655
C          17.13314930       16.55733989        9.15257072
C          19.21942491       18.03867771        8.60629669
C          13.41163002       18.38413694       10.08625451
C          12.14344085       19.04396966       10.22932560
C          11.81355031       20.42883352       10.27156149
C          10.47029853       20.89777020       10.18940999
C           9.39401924       19.89828760       10.20025878
C           9.78390198       18.51471743       10.19677830
C          11.11564599       18.08540606       10.24460255
C          11.74490652       16.77733152       10.11861224
N          13.11337199       17.04169562       10.03393412
N          11.02508507       15.65383098       10.18308231
C          17.91753008       17.76761297        9.01078467
C          19.72128804       19.38426275        8.74237835
C          18.87465350       20.42225209        9.11522444
C          17.56486623       20.18255891        9.44674803
C          17.10187511       18.84535334        9.42250907
C          15.79548290       18.23612970        9.73109056
N          15.81605372       16.85142534        9.50693999
N          14.66256261       18.96231266       10.02577779
H          13.88524473       16.40197438        9.79471857
H          14.93718848       14.75318981        9.54221139
H          10.15437226       21.93430946       10.34097602
H          12.63328974       21.13470925       10.33959545
H          16.91103760       20.98026008        9.79883425
H          19.24404069       21.43992850        9.07205404
H          20.73973405       19.55875708        8.40401538
H          19.77517272       17.19617396        8.26261612
H          19.65124683       13.34993256        8.60608464
H          20.26574308       10.84401579        8.71658109
H          18.79885278        9.21706313        9.30824768
H          16.21645315        9.73755627        9.48461815
H          11.96456073        9.91446378        9.94639266
H           9.53638231        9.46175566       10.07333668
H           7.87410119       11.38183152       10.20620986
H           8.70590791       13.67579474       10.21194027
H           8.99342045       17.79618571       10.26627805
H           8.36341434       20.16712292       10.20353591
C          10.28126682       11.67577280       13.14452814
C           8.54966107        9.94725167       13.35756711
C           9.50304871        8.94013397       13.52386006
C          10.89930248        9.28779534       13.49406700
C          11.26213841       10.64359642       13.34886692
C          12.55325334       11.45151248       13.26787982
N          12.31897778       12.83326223       13.22867085
N          13.77227227       10.88392494       13.18815959
N          17.29714832       14.23836935       12.24491630
C          14.91928862       11.57077462       12.99800255
C          16.18969482       10.87985849       12.95763737
C          16.61397631        9.56091182       13.20210743
C          17.90771762        9.13934522       12.98888743
C          18.97519700       10.13159251       12.77589864
C          18.53994638       11.42621284       12.49880437
C          17.19336140       11.75962072       12.57572739
C          16.61631373       13.07824485       12.44697674
N          15.22338790       12.89373811       12.71754673
C          10.91351305       13.02813246       13.07225581
C           8.91751486       11.30317941       13.25854184
C          16.65354896       15.40733614       12.34927510
C          18.70006738       17.02311154       12.02490558
C          12.77557222       17.03042685       13.07505895
C          11.53498557       17.74340277       13.26854749
C          11.21855236       19.07271390       13.51878369
C           9.89198239       19.47395981       13.63894540
C           8.85944420       18.57982855       13.40292169
C           9.14540656       17.21812693       13.11863882
C          10.44907500       16.77806154       13.23316657
C          10.98036412       15.45218235       13.00627870
N          12.41612874       15.63117689       12.97015741
N          10.29231740       14.27018411       13.01163566
C          17.39877034       16.68925245       12.39064938
C          19.00451000       18.39077883       12.11398539
C          18.09751559       19.35060770       12.60863036
C          16.79364328       19.01617276       12.93132492
C          16.45655940       17.66554145       12.79832074
C          15.15441993       16.95716271       12.88972341
N          15.34628961       15.65925546       12.59713756
N          13.96952170       17.67078370       13.04830842
H          13.04940424       14.86587818       12.87738097
H          14.58569182       13.69714427       12.83684229
H           9.73751804       20.47952837       14.01709876
H          12.03410933       19.75172628       13.52435116
H          16.02396932       19.70779402       13.29492599
H          18.47947972       20.36994517       12.57389919
H          19.98593278       18.79465370       11.80268440
H          19.38874120       16.23651330       11.63423869
H          19.19474759       12.25828452       12.20919417
H          20.00024039        9.78348594       12.69223770
H          18.21249752        8.11750691       13.24676727
H          15.86413872        8.80638146       13.39015719
H          11.70048963        8.56868890       13.65548723
H           9.22451678        7.86651598       13.52999589
H           7.47957564        9.67017706       13.46240007
H           8.10169051       12.00201872       13.13175376
H           8.32279030       16.50182882       13.02752910
H           7.81808922       18.88541024       13.38154834
C          13.20015499       14.02406088       22.07785249
C          14.68027754       13.88788600       22.42059171
C          15.55762604       15.01955348       22.36052110
C          14.96232199       16.42936843       21.91638312
C          13.60355209       16.51668868       21.59735336
C          12.72632972       15.25864195       21.68270022
C          12.75546131       12.77811196       21.49218815
C          13.89233502       11.91074945       21.41052233
C          15.13114606       12.54329978       21.97210125
C          16.36023200       12.43699358       21.40265255
C          16.78678715       14.84483791       21.68501209
C          15.89014792       17.08525762       21.03905701
C          15.40351570       17.75426842       19.86884044
C          13.97446146       17.87458217       19.52660684
C          13.11146907       17.25314643       20.47857979
C          11.98593022       16.52684253       19.85508921
C          11.72403398       15.30976267       20.61478878
C          11.28439759       14.11678741       19.96909940
C          11.88228693       12.82397423       20.39444555
C          14.04306742       11.04538875       20.29133202
C          13.08663994       11.10866000       19.18520260
C          12.03470241       11.98569780       19.30911327
C          11.56318933       12.77674652       18.17551728
C          11.04774541       14.08027266       18.57470295
C          11.40397478       15.22627029       17.83652156
C          11.76629000       16.54554240       18.48846083
C          12.67435557       17.11980423       17.55241686
C          13.79972962       17.81848821       18.04578829
C          17.02117824       16.07089406       20.89098011
C          16.47619685       15.95026666       16.26532905
C          17.43875088       15.84247194       17.30165556
C          17.96313199       14.62863067       17.65402004
C          17.56269305       13.37850460       17.07936532
C          16.50854943       13.48913462       16.09364304
C          14.53996667       14.81692763       15.42492241
C          14.18294111       16.15520112       15.85774763
C          15.29001880       16.84338097       16.34131919
C          15.09994344       17.64991821       17.46319352
C          16.06679645       17.59920755       18.56128422
C          17.19800188       16.73584262       18.46838765
C          18.08710426       14.63708301       19.16566860
C          17.87933461       13.47708561       19.94286028
C          17.40594557       12.25102076       19.31544479
C          17.27446221       12.24267942       17.90921910
C          16.13726566       11.62280326       17.38856042
C          15.61529188       12.39904965       16.28843374
C          14.28471222       12.45718641       16.00279776
C          13.73182261       13.71959026       15.55535895
C          12.84021039       16.29662278       16.32812535
C          12.03673410       15.12138345       16.50654241
C          12.45143054       13.85972955       16.17829650
C          12.14819585       12.58412766       16.93078481
C          13.34070525       11.70317233       16.82217490
C          13.76512400       11.01366200       17.93817805
C          15.17719372       10.89449738       18.20068138
C          15.36530936       10.94039260       19.68099282
C          16.53131837       11.54852560       20.21040580
C          17.62113864       15.93347727       19.59913224
C          17.20067030       13.61854212       21.26890248
C          16.03265959       14.69724256       15.65832938
176
MD Time 930.18
C          10.82129246       13.16335230       10.10585481
C           8.95963439       11.59108567       10.15160269
C           9.92324480       10.49371111       10.12824456
C          11.30307983       10.74389243       10.11126271
C          11.78141748       12.09864270       10.13579991
C          13.11551954       12.73072936       10.05640649
N          12.98526039       14.08418464       10.01495958
N          14.24926964       11.94021212        9.86868448
N          17.64903980       15.33791085        9.06270756
C          15.38216581       12.57211185        9.54455323
C          16.62035143       11.87070501        9.19618332
C          16.95277311       10.51894001        9.30984553
C          18.32443894       10.21028600        9.18049588
C          19.28153202       11.18830075        8.92402111
C          18.88773832       12.52910031        8.71155568
C          17.62970787       12.87793153        9.04491395
C          16.99089020       14.16495844        9.20516057
N          15.64168770       13.93713735        9.50683983
C          11.61018526       14.44264484       10.05814490
C           9.42479752       12.91094224       10.19917000
C          17.13116114       16.56070910        9.14802822
C          19.21917630       18.03789050        8.60761422
C          13.41297437       18.38589578       10.08738487
C          12.14060366       19.04438536       10.22814259
C          11.81553425       20.42923003       10.27277913
C          10.46995656       20.89849495       10.19230417
C           9.39532486       19.90456714       10.20171939
C           9.78648309       18.51284456       10.19544376
C          11.11525860       18.08158103       10.24607882
C          11.74500311       16.77947072       10.11759648
N          13.11202134       17.03940136       10.03511149
N          11.02255728       15.65348802       10.18078974
C          17.91737091       17.76959532        9.01070316
C          19.72445539       19.38388708        8.73704901
C          18.87262962       20.42149515        9.11491225
C          17.56652584       20.17855007        9.44596572
C          17.09972272       18.84685832        9.42313747
C          15.79475250       18.23936648        9.73198751
N          15.81738450       16.85408538        9.50415802
N          14.66166944       18.96243121       10.02970855
H          13.88983308       16.40773364        9.79649327
H          14.94055806       14.75564345        9.53674158
H          10.15517323       21.93315695       10.33983301
H          12.63115200       21.13204307       10.35141685
H          16.91426862       20.98733567        9.78810786
H          19.24380029       21.43677279        9.07291168
H          20.75219743       19.56902557        8.42084062
H          19.77153082       17.20129264        8.26564769
H          19.66618252       13.34369595        8.60558244
H          20.25885462       10.84858070        8.71832971
H          18.79884650        9.21414507        9.31117518
H          16.22063070        9.73119962        9.48220753
H          11.96615462        9.92408803        9.96114730
H           9.53228982        9.45572416       10.05913978
H           7.87020122       11.38601377       10.20477893
H           8.72162689       13.66667481       10.20027112
H           9.00353767       17.79376453       10.26944044
H           8.35372574       20.16380315       10.20350275
C          10.27549205       11.67831494       13.14550326
C           8.54969803        9.94682918       13.35496627
C           9.50325212        8.94039233       13.52074057
C          10.89711437        9.28868808       13.49338279
C          11.26325618       10.64353617       13.34849477
C          12.55347295       11.45412314       13.26855926
N          12.32160846       12.83293225       13.22441532
N          13.77345806       10.88253150       13.19114766
N          17.29709721       14.23691349       12.24178734
C          14.91889150       11.57170353       12.99391449
C          16.18574281       10.87938602       12.95822312
C          16.61497023        9.56254456       13.20058707
C          17.90614941        9.13915107       12.99056177
C          18.97705623       10.13037363       12.78061528
C          18.54254872       11.42211337       12.49507805
C          17.19466251       11.76173218       12.57327286
C          16.61529141       13.07854400       12.45096639
N          15.22245311       12.89339012       12.71813325
C          10.91513590       13.02621400       13.07035309
C           8.91789628       11.30544341       13.25680590
C          16.65514215       15.40642485       12.35056856
C          18.69940252       17.02570418       12.02792546
C          12.77462214       17.02988867       13.07590422
C          11.53624713       17.74159831       13.26884302
C          11.21966579       19.07152185       13.52163177
C           9.89108337       19.47059847       13.63701952
C           8.85921408       18.58207136       13.40471555
C           9.14865486       17.21927985       13.11854873
C          10.44749597       16.77901132       13.23242418
C          10.98211667       15.45325915       13.00658039
N          12.41627093       15.63271938       12.97115874
N          10.29186633       14.27060366       13.01005346
C          17.40416202       16.69261221       12.39265764
C          19.00361222       18.38982971       12.11813912
C          18.09546602       19.34905492       12.61056133
C          16.79313133       19.01788635       12.93107290
C          16.45604884       17.66627660       12.80271923
C          15.15013628       16.95739537       12.88847209
N          15.34725088       15.65990112       12.59818446
N          13.97208174       17.66894562       13.04989583
H          13.05205666       14.85948447       12.87597570
H          14.58284162       13.69447135       12.82058928
H           9.73921807       20.47182110       14.02678903
H          12.03334740       19.74434884       13.50506254
H          16.02081512       19.71071341       13.28493223
H          18.48059685       20.36577737       12.56950080
H          19.98640114       18.78908342       11.80290582
H          19.38840663       16.22759957       11.63154503
H          19.19264933       12.26260559       12.20759943
H          19.99041828        9.78104041       12.68633558
H          18.21307191        8.10507124       13.24898903
H          15.86139361        8.81118929       13.38222890
H          11.69804279        8.57506273       13.65686587
H           9.21381047        7.85778448       13.51602814
H           7.47644348        9.67335045       13.47265471
H           8.09865741       12.00756523       13.13500194
H           8.32412580       16.50625723       13.02596195
H           7.81724630       18.87944037       13.38310687
C          13.19986251       14.02435819       22.08329587
C          14.68009255       13.88532864       22.42345534
C          15.55610347       15.02063288       22.36132359
C          14.96271252       16.43294493       21.91891143
C          13.60614689       16.51684462       21.59648066
C          12.72434865       15.26275388       21.68193318
C          12.75558052       12.77553116       21.49502826
C          13.89036818       11.91175135       21.41262491
C          15.13244245       12.54058804       21.96928518
C          16.36205808       12.43741139       21.40113947
C          16.78482618       14.84258638       21.68692835
C          15.88788053       17.08214624       21.04042076
C          15.40203726       17.75360807       19.86725795
C          13.97325585       17.87314305       19.52578168
C          13.11118643       17.25421896       20.47654704
C          11.98670555       16.53182048       19.85834564
C          11.72375665       15.30969708       20.61311484
C          11.28679908       14.11440221       19.96881451
C          11.88010982       12.82251467       20.39419440
C          14.04500645       11.04268036       20.28914544
C          13.08517120       11.10913572       19.18487851
C          12.03156777       11.98351123       19.30690106
C          11.56276941       12.77473631       18.17618644
C          11.04735688       14.07691658       18.57857430
C          11.40573479       15.22831522       17.83681182
C          11.76325750       16.54741424       18.49297342
C          12.67892537       17.11922880       17.55545361
C          13.79816646       17.81894031       18.04645395
C          17.02257442       16.06968679       20.89168146
C          16.47931992       15.95018424       16.26880843
C          17.43764539       15.84415710       17.30025365
C          17.96690559       14.62621073       17.65700315
C          17.56265945       13.37719295       17.08083810
C          16.50804022       13.48857488       16.09806477
C          14.54137190       14.81899352       15.42617372
C          14.18480477       16.15586861       15.85677074
C          15.28825188       16.84407582       16.34482420
C          15.09823211       17.64884093       17.46504533
C          16.06815403       17.59920969       18.56350970
C          17.19716976       16.73308069       18.46980738
C          18.08524787       14.63788462       19.16905701
C          17.88041193       13.47686318       19.94226674
C          17.40566465       12.24938220       19.31163625
C          17.27503935       12.24323459       17.90895545
C          16.13846833       11.62413658       17.38688151
C          15.61889430       12.39964961       16.28817966
C          14.28648580       12.46442290       16.00242965
C          13.73399922       13.72193990       15.55831780
C          12.83635818       16.29926257       16.33213725
C          12.03555949       15.12440472       16.50758277
C          12.45389907       13.85818641       16.17470804
C          12.14876203       12.58171437       16.92929248
C          13.34040046       11.70063573       16.82105345
C          13.76579743       11.01365692       17.93693413
C          15.18152915       10.89704719       18.19944580
C          15.36662051       10.94076936       19.67874744
C          16.53043342       11.54450374       20.21180171
C          17.62033819       15.93643501       19.59919751
C          17.19880786       13.61943833       21.26823513
C          16.03550463       14.70031201       15.65958259
176
MD Time 950.85
C          10.82156499       13.16393149       10.10436292
C           8.96236971       11.59286262       10.14809240
C           9.92764460       10.49066263       10.12637873
C          11.30224756       10.74815986       10.11234086
C          11.78072204       12.09936900       10.13608802
C          13.11663603       12.73411631       10.05759140
N          12.98415518       14.08541221       10.01292371
N          14.25062132       11.94028364        9.86931085
N          17.65066567       15.33871198        9.05864569
C          15.38107505       12.57297508        9.54217892
C          16.62158611       11.87236456        9.19184469
C          16.95418603       10.52098085        9.30879297
C          18.32379423       10.20691567        9.17967920
C          19.27926250       11.18572691        8.92189003
C          18.88412272       12.52755546        8.70865889
C          17.62804232       12.87882401        9.03905098
C          16.98908507       14.16748925        9.20327456
N          15.64232750       13.93707569        9.50484590
C          11.61410832       14.44089631       10.05979222
C           9.42499235       12.90983551       10.19555978
C          17.12902471       16.56398688        9.14350512
C          19.21894561       18.03738707        8.60909832
C          13.41461134       18.38784357       10.08857802
C          12.13769306       19.04526110       10.22696664
C          11.81738738       20.42965306       10.27394004
C          10.46946444       20.89879653       10.19540771
C           9.39729913       19.91065196       10.20312177
C           9.78889820       18.51127843       10.19421129
C          11.11485597       18.07784690       10.24740806
C          11.74491685       16.78173836       10.11667083
N          13.11077888       17.03691977       10.03618814
N          11.02023419       15.65304631       10.17833531
C          17.91725799       17.77181659        9.01066326
C          19.72762270       19.38308789        8.73150915
C          18.87082477       20.42079023        9.11450414
C          17.56782201       20.17437862        9.44533348
C          17.09742567       18.84844909        9.42383150
C          15.79370671       18.24267717        9.73283614
N          15.81874135       16.85686227        9.50141213
N          14.66067800       18.96241762       10.03359336
H          13.89390257       16.41270665        9.79916835
H          14.94601159       14.75375170        9.53229874
H          10.15714007       21.93259437       10.33799694
H          12.62993417       21.13036310       10.36309793
H          16.91721850       20.99425790        9.77706787
H          19.24397721       21.43463257        9.07427228
H          20.76493890       19.57969113        8.43787992
H          19.77075544       17.20465722        8.26761870
H          19.67935097       13.33542894        8.60457245
H          20.25565154       10.85286707        8.71992505
H          18.79635253        9.21142365        9.31412455
H          16.22431612        9.72509670        9.48006574
H          11.96988043        9.93206481        9.97644913
H           9.52895481        9.45090063       10.04518754
H           7.86765323       11.39022171       10.20310905
H           8.73400855       13.66254526       10.18879862
H           9.01203307       17.78926531       10.27224546
H           8.34254092       20.16112447       10.20343548
C          10.26946331       11.68081663       13.14667145
C           8.54959004        9.94640297       13.35252616
C           9.50374760        8.94052400       13.51746127
C          10.89483791        9.28972992       13.49273800
C          11.26442902       10.64389321       13.34797858
C          12.55365026       11.45663844       13.26926749
N          12.32407266       12.83253608       13.22000244
N          13.77462448       10.88124568       13.19420537
N          17.29686529       14.23522413       12.23867105
C          14.91849322       11.57237031       12.98983489
C          16.18196783       10.87871152       12.95878921
C          16.61561568        9.56403673       13.19892112
C          17.90511129        9.13912220       12.99248217
C          18.97842478       10.12892857       12.78521332
C          18.54539065       11.41812738       12.49130661
C          17.19599880       11.76411834       12.57082524
C          16.61418859       13.07887736       12.45498808
N          15.22153282       12.89322860       12.71872745
C          10.91697106       13.02432081       13.06858119
C           8.91829161       11.30770202       13.25490951
C          16.65708170       15.40582170       12.35190269
C          18.69885086       17.02820471       12.03089489
C          12.77373621       17.02924607       13.07679442
C          11.53721316       17.73954196       13.26920519
C          11.22083955       19.07016000       13.52439207
C           9.89030994       19.46737824       13.63521424
C           8.85890396       18.58403718       13.40640660
C           9.15165444       17.22054660       13.11870670
C          10.44610514       16.77996636       13.23140618
C          10.98412478       15.45409870       13.00705122
N          12.41620482       15.63455282       12.97217286
N          10.29160543       14.27095350       13.00849083
C          17.40941548       16.69586463       12.39467676
C          19.00295271       18.38894577       12.12231395
C          18.09360603       19.34756372       12.61234755
C          16.79242255       19.01951255       12.93091391
C          16.45543822       17.66700573       12.80711007
C          15.14588605       16.95810400       12.88715170
N          15.34783951       15.66019423       12.59928012
N          13.97468465       17.66675892       13.05152321
H          13.05571246       14.85198251       12.87431508
H          14.58061284       13.69127036       12.80349787
H           9.73988899       20.46511551       14.03571317
H          12.03479619       19.73986642       13.48656787
H          16.01820364       19.71399944       13.27450224
H          18.48097529       20.36245557       12.56590325
H          19.98617763       18.78247460       11.80332260
H          19.38682600       16.22082857       11.62973617
H          19.19118474       12.26606402       12.20631844
H          19.98204539        9.77879759       12.68050259
H          18.21291414        8.09344339       13.25033234
H          15.85753989        8.81520936       13.37516672
H          11.69568136        8.58044028       13.65805220
H           9.20349112        7.85108637       13.50277806
H           7.47458569        9.67716772       13.48215061
H           8.09575214       12.01442320       13.13846246
H           8.32567523       16.51058853       13.02380156
H           7.81575266       18.87417509       13.38509654
C          13.19997232       14.02469611       22.08898548
C          14.67981261       13.88290759       22.42630526
C          15.55394172       15.02184940       22.36207401
C          14.96309547       16.43612791       21.92157518
C          13.60853803       16.51660596       21.59573774
C          12.72235328       15.26703010       21.68112436
C          12.75574206       12.77311019       21.49784362
C          13.88872634       11.91242677       21.41457548
C          15.13305255       12.53819798       21.96667270
C          16.36414800       12.43764890       21.39941561
C          16.78289034       14.84093347       21.68889593
C          15.88581835       17.07869894       21.04159739
C          15.40059293       17.75293129       19.86547874
C          13.97221270       17.87166016       19.52524196
C          13.11079430       17.25536277       20.47406508
C          11.98740258       16.53678093       19.86183566
C          11.72353760       15.30961467       20.61144687
C          11.28935231       14.11211548       19.96903742
C          11.87772546       12.82141764       20.39448582
C          14.04700571       11.04009730       20.28700001
C          13.08375639       11.10949297       19.18478684
C          12.02811726       11.98134828       19.30435462
C          11.56223043       12.77249441       18.17649710
C          11.04718054       14.07363780       18.58228996
C          11.40722221       15.23050478       17.83711997
C          11.76008202       16.54877165       18.49716270
C          12.68372665       17.11889179       17.55833067
C          13.79646694       17.81937260       18.04740930
C          17.02398269       16.06864308       20.89207487
C          16.48238450       15.94998922       16.27220069
C          17.43610881       15.84655566       17.29856330
C          17.97090035       14.62309492       17.66053901
C          17.56269658       13.37637745       17.08234397
C          16.50777052       13.48799952       16.10239688
C          14.54338885       14.82128607       15.42736411
C          14.18599072       16.15624082       15.85550023
C          15.28689145       16.84482923       16.34849341
C          15.09666547       17.64786431       17.46708140
C          16.06981427       17.59907895       18.56581014
C          17.19629541       16.73023590       18.47118117
C          18.08344485       14.63861155       19.17219669
C          17.88139920       13.47680128       19.94176963
C          17.40565810       12.24783606       19.30779335
C          17.27580878       12.24371179       17.90896301
C          16.13904866       11.62496248       17.38522082
C          15.62268851       12.39996792       16.28785128
C          14.28816319       12.47147179       16.00201090
C          13.73607761       13.72414828       15.56134565
C          12.83280541       16.30208476       16.33635085
C          12.03408220       15.12747559       16.50902939
C          12.45629409       13.85626043       16.17093031
C          12.14948096       12.57960013       16.92774855
C          13.33986011       11.69849527       16.81970825
C          13.76669174       11.01347545       17.93559249
C          15.18624606       10.89977645       18.19834332
C          15.36803597       10.94106938       19.67629007
C          16.52935258       11.54062048       20.21325444
C          17.61948665       15.93947820       19.59973172
C          17.19722294       13.61986835       21.26714282
C          16.03800848       14.70365558       15.66075742
176
MD Time 971.52
C          10.82186149       13.16452742       10.10296465
C           8.96528645       11.59437273       10.14465859
C           9.93173911       10.48777695       10.12441967
C          11.30138289       10.75273341       10.11339455
C          11.77979525       12.10001745       10.13630988
C          13.11759064       12.73714083       10.05871256
N          12.98307608       14.08693422       10.01087267
N          14.25177973       11.94062778        9.86992288
N          17.65229678       15.33930650        9.05449973
C          15.37998535       12.57365550        9.53977923
C          16.62275663       11.87413600        9.18776759
C          16.95572005       10.52292540        9.30767583
C          18.32320737       10.20336394        9.17893295
C          19.27669672       11.18336015        8.91953313
C          18.88132391       12.52610251        8.70592500
C          17.62583077       12.87973840        9.03311111
C          16.98740465       14.17025462        9.20129853
N          15.64294486       13.93731638        9.50273679
C          11.61794998       14.43873323       10.06153995
C           9.42564048       12.90833008       10.19177560
C          17.12676604       16.56715120        9.13900340
C          19.21874425       18.03719945        8.61074194
C          13.41649416       18.38995528       10.08983950
C          12.13474594       19.04658206       10.22580284
C          11.81907382       20.43008613       10.27504876
C          10.46884087       20.89868325       10.19871459
C           9.39986001       19.91649010       10.20446284
C           9.79114298       18.51005674       10.19308779
C          11.11444301       18.07425360       10.24858144
C          11.74464294       16.78407031       10.11583590
N          13.10965802       17.03429565       10.03716649
N          11.01813808       15.65250399       10.17572057
C          17.91717682       17.77427499        9.01066681
C          19.73078408       19.38190191        8.72579162
C          18.86928843       20.42010477        9.11397961
C          17.56872510       20.17011129        9.44485827
C          17.09499345       18.85010174        9.42458680
C          15.79235606       18.24604873        9.73363374
N          15.82010670       16.85975541        9.49870530
N          14.65959558       18.96228021       10.03742904
H          13.89747189       16.41669690        9.80269267
H          14.95331687       14.74772167        9.52892192
H          10.16023267       21.93280415       10.33552608
H          12.62984424       21.12982959       10.37460326
H          16.92000563       21.00072381        9.76570428
H          19.24453998       21.43358612        9.07614248
H          20.77754574       19.59051988        8.45509239
H          19.77299697       17.20594209        8.26843653
H          19.69029018       13.32495552        8.60308833
H          20.25649783       10.85673181        8.72129714
H          18.79138929        9.20885230        9.31708923
H          16.22764716        9.71958612        9.47816399
H          11.97585577        9.93823112        9.99223429
H           9.52661238        9.44762760       10.03159135
H           7.86682046       11.39446249       10.20114895
H           8.74214695       13.66429365       10.17752673
H           9.01864572       17.78263629       10.27467793
H           8.33081713       20.15896413       10.20333924
C          10.26327375       11.68326540       13.14802620
C           8.54932790        9.94599366       13.35025443
C           9.50449105        8.94048418       13.51401393
C          10.89248997        9.29093544       13.49212815
C          11.26561972       10.64468669       13.34732098
C          12.55379741       11.45902646       13.27000179
N          12.32635695       12.83207883       13.21543351
N          13.77575948       10.88007976       13.19732669
N          17.29644936       14.23331280       12.23557608
C          14.91807566       11.57275694       12.98578301
C          16.17843625       10.87787659       12.95931044
C          16.61588056        9.56537693       13.19711586
C          17.90463398        9.13920009       12.99466194
C          18.97924742       10.12726762       12.78968382
C          18.54844356       11.41429871       12.48749640
C          17.19734750       11.76672786       12.56840717
C          16.61301902       13.07924420       12.45902211
N          15.22064288       12.89324566       12.71932016
C          10.91899441       13.02248561       13.06693814
C           8.91863492       11.30995641       13.25285928
C          16.65936308       15.40554885       12.35327663
C          18.69846740       17.03056297       12.03378774
C          12.77293561       17.02850086       13.07772824
C          11.53787071       17.73726187       13.26964241
C          11.22206400       19.06860319       13.52704393
C           9.88968760       19.46433878       13.63355602
C           8.85850743       18.58568311       13.40798335
C           9.15436576       17.22194017       13.11910849
C          10.44494431       16.78090531       13.23011703
C          10.98636393       15.45469268       13.00768832
N          12.41597990       15.63660745       12.97319047
N          10.29155094       14.27122855       13.00694990
C          17.41443940       16.69898139       12.39673034
C          19.00254362       18.38814187       12.12650551
C          18.09196287       19.34614432       12.61398146
C          16.79149659       19.02103751       12.93084954
C          16.45473741       17.66772252       12.81148052
C          15.14173324       16.95927126       12.88576501
N          15.34806531       15.66012710       12.60041761
N          13.97728933       17.66423671       13.05319143
H          13.05971552       14.84419956       12.87252544
H          14.57884108       13.68775064       12.78569202
H           9.73953213       20.45945098       14.04379296
H          12.03853836       19.73845655       13.46895961
H          16.01609344       19.71770614       13.26369480
H          18.48060276       20.36007634       12.56312858
H          19.98526922       18.77494127       11.80396832
H          19.38375803       16.21661949       11.62899613
H          19.19035377       12.26843433       12.20535961
H          19.97584236        9.77651863       12.67473581
H          18.21180100        8.08339560       13.25063548
H          15.85264277        8.81839653       13.36898692
H          11.69355293        8.58461590       13.65906642
H           9.19386052        7.84702589       13.49032384
H           7.47415562        9.68161440       13.49078355
H           8.09325824       12.02228726       13.14216423
H           8.32741410       16.51475184       13.02104677
H           7.81356856       18.86970651       13.38754106
C          13.20046018       14.02509127       22.09489166
C          14.67944186       13.88063917       22.42913513
C          15.55114502       15.02318522       22.36277814
C          14.96346419       16.43889167       21.92438197
C          13.61069332       16.51598732       21.59511096
C          12.72037304       15.27141298       21.68029898
C          12.75591909       12.77087858       21.50062120
C          13.88744043       11.91273515       21.41633877
C          15.13297322       12.53614896       21.96428092
C          16.36647660       12.43768933       21.39748740
C          16.78098559       14.83989746       21.69090525
C          15.88398213       17.07494231       21.04255632
C          15.39919450       17.75222738       19.86353577
C          13.97134221       17.87014586       19.52498433
C          13.11030983       17.25657386       20.47117462
C          11.98799066       16.54168776       19.86553712
C          11.72338794       15.30953043       20.60980251
C          11.29205092       14.10994001       19.96978061
C          11.87515950       12.82066385       20.39533206
C          14.04903891       11.03766542       20.28491808
C          13.08242320       11.10971807       19.18491129
C          12.02436079       11.97921507       19.30151106
C          11.56157137       12.77003026       18.17642291
C          11.04722529       14.07047435       18.58579528
C          11.40841299       15.23279822       17.83748519
C          11.75679420       16.54963072       18.50099737
C          12.68868979       17.11877424       17.56105941
C          13.79466438       17.81979703       18.04866067
C          17.02537853       16.06777222       20.89217674
C          16.48534734       15.94970224       16.27547645
C          17.43420716       15.84959496       17.29664723
C          17.97507988       14.61935028       17.66460032
C          17.56282158       13.37607188       17.08389294
C          16.50774956       13.48746116       16.10661199
C          14.54602511       14.82380968       15.42848964
C          14.18646676       16.15633587       15.85395828
C          15.28595291       16.84562869       16.35231073
C          15.09525600       17.64699785       17.46931078
C          16.07175803       17.59881638       18.56817178
C          17.19537233       16.72733454       18.47249763
C          18.08170637       14.63926538       19.17506584
C          17.88228490       13.47688676       19.94137344
C          17.40592485       12.24638652       19.30397251
C          17.27676738       12.24409722       17.90922661
C          16.13901987       11.62527207       17.38358976
C          15.62662342       12.40000719       16.28743270
C          14.28976235       12.47827317       16.00156761
C          13.73806328       13.72622584       15.56442463
C          12.82960359       16.30507933       16.34073114
C          12.03231863       15.13054249       16.51086663
C          12.45856946       13.85400790       16.16700265
C          12.15034443       12.57779483       16.92616018
C          13.33910385       11.69677369       16.81812405
C          13.76781648       11.01311896       17.93416534
C          15.19130213       10.90267454       18.19736837
C          15.36954336       10.94128723       19.67363129
C          16.52811561       11.53690697       20.21473972
C          17.61859602       15.94257595       19.60074296
C          17.19592316       13.61981974       21.26562284
C          16.04017265       14.70722869       15.66185986
176
MD Time 992.19
C          10.82219377       13.16513142       10.10166149
C           8.96835609       11.59557862       10.14130266
C           9.93547674       10.48506219       10.12235994
C          11.30052308       10.75756740       10.11442660
C          11.77865083       12.10062018       10.13646838
C          13.11837797       12.73977168       10.05976781
N          12.98204140       14.08874873       10.00881202
N          14.25273101       11.94125191        9.87052177
N          17.65391526       15.33971693        9.05027324
C          15.37892153       12.57414955        9.53735146
C          16.62383782       11.87600605        9.18395794
C          16.95735143       10.52474049        9.30649598
C          18.32267775       10.19965522        9.17825509
C          19.27384005       11.18120373        8.91695096
C          18.87937952       12.52473394        8.70335013
C          17.62308361       12.88069436        9.02710034
C          16.98586938       14.17323642        9.19922253
N          15.64355348       13.93783790        9.50051295
C          11.62166260       14.43620011       10.06337657
C           9.42677240       12.90643775       10.18782010
C          17.12441295       16.57018274        9.13452676
C          19.21860003       18.03733138        8.61252650
C          13.41857325       18.39220626       10.09117367
C          12.13180095       19.04832671       10.22465616
C          11.82056979       20.43052043       10.27611059
C          10.46810894       20.89817268       10.20221735
C           9.40291207       19.92203119       10.20573958
C           9.79320057       18.50919463       10.19208140
C          11.11402488       18.07085559       10.24959036
C          11.74417943       16.78640061       10.11509109
N          13.10867110       17.03157548       10.03804956
N          11.01629096       15.65186008       10.17294870
C          17.91711145       17.77696443        9.01071590
C          19.73393626       19.38037412        8.71993309
C          18.86806492       20.41941207        9.11332040
C          17.56921339       20.16581707        9.44454423
C          17.09243638       18.85179038        9.42539836
C          15.79071335       18.24946745        9.73437651
N          15.82146188       16.86276363        9.49604232
N          14.65842999       18.96202537       10.04121108
H          13.90055386       16.41951586        9.80700891
H          14.96203151       14.73802953        9.52664742
H          10.16440616       21.93389968       10.33247447
H          12.63095337       21.13049064       10.38588113
H          16.92273593       21.00644141        9.75402639
H          19.24542939       21.43361754        9.07852466
H          20.78957617       19.60125516        8.47241811
H          19.77818344       17.20511434        8.26813674
H          19.69869926       13.31226909        8.60114722
H          20.26134809       10.86015634        8.72245549
H          18.78404600        9.20631055        9.32007064
H          16.23074974        9.71498760        9.47647644
H          11.98399660        9.94264939       10.00846578
H           9.52544426        9.44612491       10.01846377
H           7.86794137       11.39871820       10.19885591
H           8.74574792       13.67212935       10.16645547
H           9.02331281       17.77402720       10.27670493
H           8.31957915       20.15719819       10.20322045
C          10.25702264       11.68565235       13.14955893
C           8.54891290        9.94562373       13.34815706
C           9.50543790        8.94024596       13.51039251
C          10.89009465        9.29231437       13.49154923
C          11.26679197       10.64592930       13.34652620
C          12.55392493       11.46125711       13.27075894
N          12.32844829       12.83156674       13.21071171
N          13.77685115       10.87904437       13.20050428
N          17.29584913       14.23119615       12.23251184
C          14.91762313       11.57285014       12.98177850
C          16.17521015       10.87692280       12.95976230
C          16.61573574        9.56654718       13.19517962
C          17.90473399        9.13933778       12.99710990
C          18.97948953       10.12539890       12.79401563
C          18.55167331       11.41066784       12.48365718
C          17.19868968       11.76950805       12.56604102
C          16.61179373       13.07964238       12.46304761
N          15.21980059       12.89342879       12.71990302
C          10.92118084       13.02073910       13.06542239
C           8.91885686       11.31220701       13.25066423
C          16.66197341       15.40562377       12.35468971
C          18.69829458       17.03274171       12.03658382
C          12.77224156       17.02766006       13.07870501
C          11.53821042       17.73478842       13.27016223
C          11.22335477       19.06685060       13.52956561
C           9.88923975       19.46152221       13.63207164
C           8.85801377       18.58697344       13.40943593
C           9.15675239       17.22346898       13.11974817
C          10.44405149       16.78180653       13.22856302
C          10.98880781       15.45503661       13.00848758
N          12.41564932       15.63880932       12.97420154
N          10.29171785       14.27142466       13.00543360
C          17.41914384       16.70193626       12.39884096
C          19.00238948       18.38743099       12.13071033
C          18.09055981       19.34480914       12.61545663
C          16.79033844       19.02244528       12.93087939
C          16.45395765       17.66842268       12.81581611
C          15.13774243       16.96087220       12.88431445
N          15.34794186       15.65969849       12.60159005
N          13.97985135       17.66139161       13.05490082
H          13.06339094       14.83698306       12.87074075
H          14.57733757       13.68415150       12.76729708
H           9.73816967       20.45480534       14.05092880
H          12.04432876       19.73999644       13.45234468
H          16.01444545       19.72187536       13.25257126
H          18.47946360       20.35868274       12.56119236
H          19.98376394       18.76663755       11.80485124
H          19.37910580       16.21522694       11.62942842
H          19.19018562       12.26954356       12.20471323
H          19.97232449        9.77402303       12.66904241
H          18.20957624        8.07553608       13.24978779
H          15.84683874        8.82076940       13.36368484
H          11.69175307        8.58744997       13.65991795
H           9.18517610        7.84599842       13.47874808
H           7.47518367        9.68663729       13.49846585
H           8.09145641       12.03083245       13.14612791
H           8.32930551       16.51867178       13.01770286
H           7.81072690       18.86609688       13.39045812
C          13.20129831       14.02555919       22.10098138
C          14.67898328       13.87853898       22.43193848
C          15.54772718       15.02462383       22.36343906
C          14.96381057       16.44121164       21.92733625
C          13.61258181       16.51500711       21.59458500
C          12.71843819       15.27584396       21.67948381
C          12.75608759       12.76886369       21.50335008
C          13.88653668       11.91264247       21.41788381
C          15.13221528       12.53445695       21.96212291
C          16.36900885       12.43751751       21.39536712
C          16.77911926       14.83948434       21.69294406
C          15.88238987       17.07090597       21.04326601
C          15.39785570       17.75148416       19.86146544
C          13.97065477       17.86861306       19.52500189
C          13.10975200       17.25784601       20.46792274
C          11.98843718       16.54650376       19.86941865
C          11.72331907       15.30946149       20.60820212
C          11.29488451       14.10788841       19.97104879
C          11.87243803       12.82022908       20.39673702
C          14.05108123       11.03540760       20.28291938
C          13.08119737       11.10979885       19.18523217
C          12.02031217       11.97711821       19.29841461
C          11.56078951       12.76735780       18.17594260
C          11.04749766       14.06746161       18.58904077
C          11.40928494       15.23515547       17.83794431
C          11.75342795       16.55001105       18.50445099
C          12.69374118       17.11885597       17.56365192
C          13.79279721       17.82022594       18.05021396
C          17.02673545       16.06708269       20.89200718
C          16.48816157       15.94934682       16.27860484
C          17.43201410       15.85319211       17.29457542
C          17.97940243       14.61505873       17.66915371
C          17.56305019       13.37628159       17.08549666
C          16.50798327       13.48701382       16.11067999
C          14.54927734       14.82656147       15.42954728
C          14.18621577       16.15617760       15.85217172
C          15.28544119       16.84645884       16.35625709
C          15.09401646       17.64624842       17.47173979
C          16.07396285       17.59842366       18.57057956
C          17.19439416       16.72440400       18.47374628
C          18.08004327       14.63984909       19.17764618
C          17.88305908       13.47710608       19.94108034
C          17.40646297       12.24503739       19.30023202
C          17.27790676       12.24437658       17.90972479
C          16.13840809       11.62506437       17.38200039
C          15.63064548       12.39977154       16.28690763
C          14.29130319       12.48476700       16.00112407
C          13.73996695       13.72818827       15.56753396
C          12.82680013       16.30823016       16.34524102
C          12.03028936       15.13355195       16.51307387
C          12.46067774       13.85149084       16.16296636
C          12.15134366       12.57630657       16.92453191
C          13.33815407       11.69548812       16.81629120
C          13.76917686       11.01259120       17.93266437
C          15.19664778       10.90572627       18.19651499
C          15.37112982       10.94141788       19.67078609
C          16.52676400       11.53339459       20.21623221
C          17.61768094       15.94569455       19.60223027
C          17.19491161       13.61929410       21.26368001
C          16.04200040       14.71098129       15.66289653
176
MD Time 1012.86
C          10.82257313       13.16573478       10.10045480
C           8.97155537       11.59644669       10.13802582
C           9.93881466       10.48253417       10.12019380
C          11.29971833       10.76259436       10.11543805
C          11.77730603       12.10120948       10.13656637
C          13.11899314       12.74198250       10.06075462
N          12.98106967       14.09084745       10.00674824
N          14.25346231       11.94216096        9.87110820
N          17.65550305       15.33996812        9.04597146
C          15.37790826       12.57445721        9.53489450
C          16.62480476       11.87795885        9.18042199
C          16.95905737       10.52639765        9.30525552
C          18.32219896       10.19582136        9.17764239
C          19.27073580       11.17924818        8.91414049
C          18.87829909       12.52343534        8.70093451
C          17.61982693       12.88170837        9.02102447
C          16.98449764       14.17641248        9.19703759
N          15.64418209       13.93859538        9.49817576
C          11.62519793       14.43334730       10.06528928
C           9.42836066       12.90423535       10.18369729
C          17.12199628       16.57306406        9.13008038
C          19.21855646       18.03775886        8.61442238
C          13.42079465       18.39456797       10.09258402
C          12.12889886       19.05046722       10.22353204
C          11.82186270       20.43095759       10.27713186
C          10.46729473       20.89729278       10.20590678
C           9.40635483       19.92722469       10.20694914
C           9.79504118       18.50868632       10.19120137
C          11.11360485       18.06770922       10.25042685
C          11.74352853       16.78866239       10.11443507
N          13.10782766       17.02880693       10.03884097
N          11.01471323       15.65111343       10.17002494
C          17.91704607       17.77987327        9.01081198
C          19.73707600       19.37855566        8.71397424
C          18.86719301       20.41869107        9.11251094
C          17.56927705       20.16156712        9.44439117
C          17.08976479       18.85348733        9.42626069
C          15.78879649       18.25291615        9.73505977
N          15.82278716       16.86588348        9.49342895
N          14.65719068       18.96166255       10.04493391
H          13.90317364       16.42098743        9.81205113
H          14.97148272       14.72544733        9.52551057
H          10.16961288       21.93591819       10.32889287
H          12.63320559       21.13228549       10.39686203
H          16.92547549       21.01116633        9.74207572
H          19.24656017       21.43462541        9.08141566
H          20.80059507       19.61162860        8.48977040
H          19.78601626       17.20243547        8.26688422
H          19.70444670       13.29752580        8.59875084
H          20.26974124       10.86324004        8.72348449
H          18.77447899        9.20361454        9.32307740
H          16.23372686        9.71158333        9.47498287
H          11.99401753        9.94560233       10.02512142
H           9.52557360        9.44648483       10.00591351
H           7.87112395       11.40294679       10.19619660
H           8.74518737       13.68550006       10.15560196
H           9.02616769       17.76378446       10.27827524
H           8.30981554       20.15572221       10.20308664
C          10.25081303       11.68797090       13.15125937
C           8.54835765        9.94531727       13.34623841
C           9.50654432        8.93980158       13.50659323
C          10.88768410        9.29387106       13.49099796
C          11.26790964       10.64762648       13.34560028
C          12.55404266       11.46330097       13.27153518
N          12.33033456       12.83100673       13.20584249
N          13.77788768       10.87814945       13.20372935
N          17.29506565       14.22889457       12.22948875
C          14.91712149       11.57264030       12.97784175
C          16.17234748       10.87589114       12.96012116
C          16.61515620        9.56752440       13.19312232
C          17.90541157        9.13950100       12.99983022
C          18.97914375       10.12332701       12.79819427
C          18.55503949       11.40727159       12.47980181
C          17.20001053       11.77240478       12.56374902
C          16.61052413       13.08007078       12.46704234
N          15.21902383       12.89376118       12.72046840
C          10.92350202       13.01911115       13.06403243
C           8.91888855       11.31445200       13.24833571
C          16.66489329       15.40605729       12.35614083
C          18.69836114       17.03471710       12.03926931
C          12.77167211       17.02673042       13.07972379
C          11.53822904       17.73215400       13.27077099
C          11.22474599       19.06492589       13.53193460
C           9.88898559       19.45897058       13.63078704
C           8.85740910       18.58788013       13.41075617
C           9.15878193       17.22513640       13.12061810
C          10.44345792       16.78264801       13.22675196
C          10.99142735       15.45512867       13.00944375
N          12.41526198       15.64108811       12.97519607
N          10.29212077       14.27153782       13.00394571
C          17.42344361       16.70470417       12.40102916
C          19.00248784       18.38682258       12.13492509
C          18.08941653       19.34357266       12.61676831
C          16.78894063       19.02372177       12.93100094
C          16.45310948       17.66910210       12.82010093
C          15.13397977       16.96287205       12.88280232
N          15.34748690       15.65891220       12.60279008
N          13.98232374       17.65824264       13.05665165
H          13.06614878       14.83109031       12.86908839
H          14.57589662       13.68073005       12.74844035
H           9.73584716       20.45111124       14.05700865
H          12.05165668       19.74410571       13.43685597
H          16.01319979       19.72655026       13.24120459
H          18.47754494       20.35827743       12.56010189
H          19.98182917       18.75775803       11.80595404
H          19.37291556       16.21673586       11.63105380
H          19.19073696       12.26927373       12.20435258
H          19.97172530        9.77121729       12.66345391
H          18.20615652        8.07028937       13.24773347
H          15.84033100        8.82240665       13.35923640
H          11.69030489        8.58888846       13.66060051
H           9.17764488        7.84818889       13.46813215
H           7.47758157        9.69214775       13.50512942
H           8.09060403       12.03973288       13.15036288
H           8.33130849       16.52227530       13.01378246
H           7.80733441       18.86337870       13.39385838
C          13.20245601       14.02611410       22.10721779
C          14.67843813       13.87662138       22.43470792
C          15.54371123       15.02614897       22.36405764
C          14.96412465       16.44306523       21.93043902
C          13.61417464       16.51368691       21.59414303
C          12.71657955       15.28026307       21.67870685
C          12.75622731       12.76709066       21.50601973
C          13.88603550       11.91212226       21.41918346
C          15.13080309       12.53313486       21.96020720
C          16.37169935       12.43712022       21.39307330
C          16.77730003       14.83968702       21.69499777
C          15.88105669       17.06662220       21.04369708
C          15.39659198       17.75068917       19.85930773
C          13.97015974       17.86707626       19.52528438
C          13.10914048       17.25917006       20.46436403
C          11.98870809       16.55119056       19.87344043
C          11.72334239       15.30942521       20.60666799
C          11.29783964       14.10597315       19.97283802
C          11.86958840       12.82008511       20.39869644
C          14.05310969       11.03334468       20.28102108
C          13.08010144       11.10972659       19.18572656
C          12.01599036       11.97506451       19.29511550
C          11.55988137       12.76449559       18.17504024
C          11.04800339       14.06463188       18.59198354
C          11.40981752       15.23753627       17.83853183
C          11.75001964       16.54993566       18.50750282
C          12.69880277       17.11911506       17.56612049
C          13.79090766       17.82067305       18.05207349
C          17.02802517       16.06658175       20.89159173
C          16.49077821       15.94894946       16.28155298
C          17.42961092       15.85725663       17.29242393
C          17.98382271       14.61031380       17.67415969
C          17.56339594       13.37700244       17.08716784
C          16.50847445       13.48671016       16.11456957
C          14.55313087       14.82953026       15.43053334
C          14.18523594       16.15579684       15.85017132
C          15.28535200       16.84730225       16.36030864
C          15.09295962       17.64562238       17.47437197
C          16.07640251       17.59790493       18.57301725
C          17.19335685       16.72147200       18.47491762
C          18.07846661       14.64036636       19.17992353
C          17.88371329       13.47744452       19.94089051
C          17.40726947       12.24379192       19.29663129
C          17.27921380       12.24453590       17.91042969
C          16.13725203       11.62434617       17.38046514
C          15.63470008       12.39926732       16.28625976
C          14.29280643       12.49089344       16.00070281
C          13.74180288       13.73005442       15.57064994
C          12.82443498       16.31151524       16.34984138
C          12.02801896       15.13645211       16.51562590
C          12.46257073       13.84877510       16.15886474
C          12.15246913       12.57514160       16.92286763
C          13.33703618       11.69464925       16.81420742
C          13.77077337       11.01189944       17.93110038
C          15.20222563       10.90891220       18.19577757
C          15.37278193       10.94145723       19.66777363
C          16.52533944       11.53011379       20.21770549
C          17.61675924       15.94879806       19.60418260
C          17.19418679       13.61830681       21.26132697
C          16.04349797       14.71485873       15.66387391
176
MD Time 1033.53
C          10.82300988       13.16632926       10.09934547
C           8.97486754       11.59694837       10.13482844
C           9.94172117       10.48021635       10.11791739
C          11.29902780       10.76773037       10.11642967
C          11.77578153       12.10181718       10.13660681
C          13.11943216       12.74375305       10.06167015
N          12.98017917       14.09321593       10.00468850
N          14.25396210       11.94335760        9.87168252
N          17.65704283       15.34008717        9.04160050
C          15.37696952       12.57458215        9.53240857
C          16.62563345       11.87997603        9.17716537
C          16.96081731       10.52787503        9.30395640
C          18.32175932       10.19190005        9.17709042
C          19.26745866       11.17747342        8.91109658
C          18.87806250       12.52218519        8.69868176
C          17.61610246       12.88279356        9.01488831
C          16.98330452       14.17975670        9.19473568
N          15.64487496       13.93952057        9.49572724
C          11.62850912       14.43022951       10.06726429
C           9.43033060       12.90185388       10.17941089
C          17.11954871       16.57578078        9.12567039
C          19.21866874       18.03843464        8.61639134
C          13.42310159       18.39700938       10.09407317
C          12.12608120       19.05296975       10.22243609
C          11.82295150       20.43140902       10.27812035
C          10.46642720       20.89608232       10.20977236
C           9.41008976       19.93202035       10.20808907
C           9.79662590       18.50850781       10.19045738
C          11.11318440       18.06487087       10.25108383
C          11.74269681       16.79079014       10.11386562
N          13.10713490       17.02603659       10.03954483
N          11.01342274       15.65026293       10.16695620
C          17.91696544       17.78298496        9.01095577
C          19.74019875       19.37650227        8.70795889
C          18.86670377       20.41792625        9.11153887
C          17.56891917       20.15743164        9.44439431
C          17.08698893       18.85516405        9.42716794
C          15.78662758       18.25637528        9.73567813
N          15.82406222       16.86910971        9.49087154
N          14.65588846       18.96120342       10.04859154
H          13.90535299       16.42096584        9.81775063
H          14.98077161       14.71103756        9.52554675
H          10.17580356       21.93881286       10.32482868
H          12.63642173       21.13504840       10.40745782
H          16.92824551       21.01471729        9.72992490
H          19.24782651       21.43643179        9.08480543
H          20.81021132       19.62137318        8.50703406
H          19.79600545       17.19840782        8.26495080
H          19.70758308       13.28104227        8.59588544
H          20.28086940       10.86617048        8.72452324
H          18.76290330        9.20053116        9.32612441
H          16.23664583        9.70959780        9.47367131
H          12.00546697        9.94754655       10.04217907
H           9.52705714        9.44866193        9.99403745
H           7.87633516       11.40708249       10.19314820
H           8.74138930       13.70320520       10.14501302
H           9.02750565       17.75241689       10.27932324
H           8.30239405       20.15446270       10.20294606
C          10.24474872       11.69021706       13.15311573
C           8.54768568        9.94509932       13.34450040
C           9.50776845        8.93916253       13.50261468
C          10.88529757        9.29560425       13.49047176
C          11.26893773       10.64977623       13.34455108
C          12.55415928       11.46513095       13.27232629
N          12.33200520       12.83040598       13.20083298
N          13.77885786       10.87740389       13.20699217
N          17.29410162       14.22643202       12.22651767
C          14.91655886       11.57212188       12.97399302
C          16.16990021       10.87482108       12.96036481
C          16.61412323        9.56828247       13.19095475
C          17.90665010        9.13966892       13.00282257
C          18.97823278       10.12105202       12.80220168
C          18.55849664       11.40414110       12.47594579
C          17.20129964       11.77536380       12.56155241
C          16.60922110       13.08052867       12.47098353
N          15.21832832       12.89422439       12.72100991
C          10.92592792       13.01762955       13.06276664
C           8.91866521       11.31668649       13.24588729
C          16.66809702       15.40685338       12.35762877
C          18.69868058       17.03647947       12.04183793
C          12.77124194       17.02571913       13.08078367
C          11.53792984       17.72939205       13.27147362
C          11.22628332       19.06287118       13.53412780
C           9.88894001       19.45672314       13.62972607
C           8.85667774       18.58838413       13.41193836
C           9.16042726       17.22694024       13.12170877
C          10.44318702       16.78340815       13.22469326
C          10.99419199       15.45497041       13.01055032
N          12.41485937       15.64338175       12.97616502
N          10.29277313       14.27156429       13.00249056
C          17.42726132       16.70726241       12.40331315
C          19.00282982       18.38632266       12.13914709
C          18.08854766       19.34245086       12.61791391
C          16.78730290       19.02485511       12.93120970
C          16.45220271       17.66975727       12.82431856
C          15.13051108       16.96522711       12.88123069
N          15.34672214       15.65777742       12.60401015
N          13.98465816       17.65481372       13.05844428
H          13.06752951       14.82713053       12.86767971
H          14.57432660       13.67772442       12.72924366
H           9.73263131       20.44826810       14.06191630
H          12.05982619       19.75021096       13.42265462
H          16.01228633       19.73176644       13.22967255
H          18.47483763       20.35882102       12.55985546
H          19.97969993       18.74852892       11.80723648
H          19.36537659       16.22105467       11.63380679
H          19.19209077       12.26756898       12.20423352
H          19.97396099        9.76810910       12.65803647
H          18.20153278        8.06788270       13.24447266
H          15.83337102        8.82343226       13.35560094
H          11.68915710        8.58896658       13.66109179
H           9.17141389        7.85356440       13.45854855
H           7.48114192        9.69802437       13.51073109
H           8.09090685       12.04868686       13.15486460
H           8.33337966       16.52549488       13.00930593
H           7.80355985       18.86155588       13.39774427
C          13.20389978       14.02676814       22.11356161
C          14.67780626       13.87489905       22.43743587
C          15.53912937       15.02774515       22.36463260
C          14.96439509       16.44443304       21.93368772
C          13.61544636       16.51205128       21.59376738
C          12.71482745       15.28461118       21.67799654
C          12.75632224       12.76558109       21.50862092
C          13.88595034       11.91115650       21.42021536
C          15.12877418       12.53219169       21.95853759
C          16.37449426       12.43648664       21.39062992
C          16.77553743       14.84048530       21.69704984
C          15.87999377       17.06212499       21.04382311
C          15.39542003       17.74982967       19.85710517
C          13.96986541       17.86555099       19.52581821
C          13.10849512       17.26053441       20.46055890
C          11.98876872       16.55571006       19.87755541
C          11.72346898       15.30943910       20.60522384
C          11.30089995       14.10420606       19.97513519
C          11.86663829       12.82019999       20.40119810
C          14.05510384       11.03149448       20.27923725
C          13.07915403       11.10949604       19.18636866
C          12.01141901       11.97305997       19.29166846
C          11.55884275       12.76146620       18.17370586
C          11.04874680       14.06201343       18.59458882
C          11.40999267       15.23990116       17.83927911
C          11.74660694       16.54943096       18.51013910
C          12.70379473       17.11952860       17.56847772
C          13.78904071       17.82115294       18.05424200
C          17.02921830       16.06627504       20.89096081
C          16.49314776       15.94853891       16.28428761
C          17.42708341       15.86169431       17.29027243
C          17.98829399       14.60521687       17.67957402
C          17.56386973       13.37822075       17.08892005
C          16.50922238       13.48659979       16.11824963
C          14.55755965       14.83269707       15.43144407
C          14.18354072       16.15523052       15.84799140
C          15.28567161       16.84813998       16.36443820
C          15.09209779       17.64512479       17.47720791
C          16.07904762       17.59726642       18.57546806
C          17.19225854       16.71856563       18.47600392
C          18.07698711       14.64082168       19.18188883
C          17.88424101       13.47788668       19.94080191
C          17.40834029       12.24265257       19.29322892
C          17.28067110       12.24456208       17.91130787
C          16.13560270       11.62313272       17.37899554
C          15.63873361       12.39850349       16.28547331
C          14.29429297       12.49659545       16.00032418
C          13.74358903       13.73184633       15.57374713
C          12.82254001       16.31490697       16.35449203
C          12.02553541       15.13919463       16.51849346
C          12.46420148       13.84592858       16.15474163
C          12.15371084       12.57430384       16.92116989
C          13.33577851       11.69426096       16.81187743
C          13.77260166       11.01105429       17.92948267
C          15.20797184       10.91220877       18.19515084
C          15.37448626       10.94140222       19.66461688
C          16.52388312       11.52709297       20.21913285
C          17.61585128       15.95184948       19.60657873
C          17.19374222       13.61688688       21.25858411
C          16.04467463       14.71880375       15.66479849
176
MD Time 1054.21
C          10.82351263       13.16690773       10.09833367
C           8.97828368       11.59706141       10.13170938
C           9.94417751       10.47813947       10.11552877
C          11.29851382       10.77288252       10.11740341
C          11.77410108       12.10247390       10.13659275
C          13.11969235       12.74507029       10.06251139
N          12.97938734       14.09583441       10.00264012
N          14.25422048       11.94484199        9.87224481
N          17.65851874       15.34010328        9.03716641
C          15.37612809       12.57453174        9.52989471
C          16.62630156       11.88203717        9.17419212
C          16.96261405       10.52915896        9.30260006
C          18.32134297       10.18793227        9.17659358
C          19.26410347       11.17585202        8.90781395
C          18.87861968       12.52095455        8.69659804
C          17.61196623       12.88395972        9.00869463
C          16.98230095       14.18323993        9.19230949
N          15.64569002       13.94052526        9.49316935
C          11.63155234       14.42690420       10.06928721
C           9.43258096       12.89945527       10.17496344
C          17.11710357       16.57832222        9.12130291
C          19.21899792       18.03929605        8.61839042
C          13.42543634       18.39949815       10.09564295
C          12.12338858       19.05579540       10.22137382
C          11.82384528       20.43189427       10.27908550
C          10.46553781       20.89458992       10.21380299
C           9.41402574       19.93636936       10.20915767
C           9.79791208       18.50862155       10.18985892
C          11.11276324       18.06239507       10.25155537
C          11.74169470       16.79272176       10.11337948
N          13.10659799       17.02330790       10.04016562
N          11.01243413       15.64930772       10.16375053
C          17.91685556       17.78627896        9.01114707
C          19.74329754       19.37427210        8.70193238
C          18.86661908       20.41710651        9.11039533
C          17.56815598       20.15347687        9.44454421
C          17.08411866       18.85679230        9.42811410
C          15.78423191       18.25982401        9.73622579
N          15.82526665       16.87243586        9.48837634
N          14.65453503       18.96066141       10.05217840
H          13.90709903       16.41934930        9.82404137
H          14.98881052       14.69610466        9.52679449
H          10.18292738       21.94245435       10.32032642
H          12.64032167       21.13852823       10.41756472
H          16.93101944       21.01698804        9.71767414
H          19.24911038       21.43880005        9.08867625
H          20.81810977       19.63023686        8.52406886
H          19.80753117       17.19368621        8.26267780
H          19.70835033       13.26328962        8.59252068
H          20.29369923       10.86918009        8.72573702
H          18.74957892        9.19679793        9.32923103
H          16.23952913        9.70918189        9.47253994
H          12.01778528        9.94904364       10.05960393
H           9.52988165        9.45247125        9.98291297
H           7.88340000       11.41103810       10.18969831
H           8.73559280       13.72364577       10.13476426
H           9.02773019       17.74054039       10.27977600
H           8.29800555       20.15338110       10.20280684
C          10.23893073       11.69238954       13.15511515
C           8.54693015        9.94499526       13.34294197
C           9.50907194        8.93835932       13.49845745
C          10.88297937        9.29750754       13.48996858
C          11.26984321       10.65236958       13.34338796
C          12.55428195       11.46672345       13.27312778
N          12.33345183       12.82977178       13.19569103
N          13.77975150       10.87681486       13.21028280
N          17.29296152       14.22383555       12.22360916
C          14.91592611       11.57129389       12.97025127
C          16.16791258       10.87374945       12.96047300
C          16.61262645        9.56879438       13.18868786
C          17.90841639        9.13983437       13.00608255
C          18.97680776       10.11856998       12.80601688
C          18.56199605       11.40130012       12.47210643
C          17.20255138       11.77833226       12.55947060
C          16.60789448       13.08101570       12.47484898
N          15.21772539       12.89480071       12.72152242
C          10.92842783       13.01631905       13.06162299
C           8.91812936       11.31890219       13.24333415
C          16.67155357       15.40800909       12.35915229
C          18.69924997       17.03803431       12.04429209
C          12.77096216       17.02463400       13.08188406
C          11.53732271       17.72653587       13.27227356
C          11.22801531       19.06073961       13.53612265
C           9.88911341       19.45481357       13.62890928
C           8.85580418       18.58847609       13.41297980
C           9.16166779       17.22887250       13.12300903
C          10.44325337       16.78406661       13.22239746
C          10.99707045       15.45456667       13.01179971
N          12.41447349       15.64563961       12.97710097
N          10.29368685       14.27150089       13.00107263
C          17.43053039       16.70959174       12.40570870
C          19.00340138       18.38593413       12.14337476
C          18.08796182       19.34146046       12.61889344
C          16.78543169       19.02583651       12.93149940
C          16.45124599       17.67038549       12.82845306
C          15.12739970       16.96788645       12.87960130
N          15.34567279       15.65630860       12.60524284
N          13.98680613       17.65113229       13.06027942
H          13.06723282       14.82552886       12.86660298
H          14.57247586       13.67532265       12.70981967
H           9.72860677       20.44615656       14.06554035
H          12.06805928       19.75763056       13.40992069
H          16.01163304       19.73754516       13.21805152
H          18.47133780       20.36023570       12.56044202
H          19.97765987       18.73919580       11.80864078
H          19.35681831       16.22791169       11.63753410
H          19.19435342       12.26443817       12.20429545
H          19.97864767        9.76480175       12.65289446
H          18.19576846        8.06833818       13.24005988
H          15.82623455        8.82399667       13.35272502
H          11.68819203        8.58780292       13.66135532
H           9.16656192        7.86187318       13.45005430
H           7.48554828        9.70411858       13.51525565
H           8.09249915       12.05743715       13.15961437
H           8.33547720       16.52827315       13.00430093
H           7.79961685       18.86060672       13.40210963
C          13.20559395       14.02753091       22.11997288
C          14.67708610       13.87338239       22.44011525
C          15.53402182       15.02939804       22.36516084
C          14.96460945       16.44529985       21.93707637
C          13.61637608       16.51012709       21.59344012
C          12.71321080       15.28883194       21.67738103
C          12.75636113       12.76435197       21.51114631
C          13.88628691       11.90973601       21.42096246
C          15.12617767       12.53163201       21.95711301
C          16.37733357       12.43560857       21.38806526
C          16.77384117       14.84184675       21.69908246
C          15.87920760       17.05744869       21.04362162
C          15.39435729       17.74889271       19.85490161
C          13.96977882       17.86405320       19.52658680
C          13.10783511       17.26192567       20.45657168
C          11.98858476       16.56002598       19.88171126
C          11.72370931       15.30952031       20.60389412
C          11.30404678       14.10259792       19.97791824
C          11.86361484       12.82053891       20.40422283
C          14.05704643       11.02987126       20.27757841
C          13.07836910       11.10910552       19.18713046
C          12.00662553       11.97110890       19.28813065
C          11.55766872       12.75829533       18.17193578
C          11.04973088       14.05962980       18.59683116
C          11.40979537       15.24221238       17.84021380
C          11.74322742       16.54852645       18.51235378
C          12.70863824       17.12007327       17.57073667
C          13.78724262       17.82168066       18.05672077
C          17.03028504       16.06616626       20.89014928
C          16.49522220       15.94814542       16.28677681
C          17.42451867       15.86641119       17.28820127
C          17.99277047       14.59987315       17.68534958
C          17.56447955       13.37991355       17.09076735
C          16.51022290       13.48672748       16.12169083
C          14.56252710       14.83603631       15.43227598
C          14.18115767       16.15452062       15.84566908
C          15.28637742       16.84895256       16.36861680
C          15.09144250       17.64475896       17.48024551
C          16.08186645       17.59651618       18.57791532
C          17.19109954       16.71571025       18.47699994
C          18.07561476       14.64122025       19.18353903
C          17.88463789       13.47841682       19.94081025
C          17.40967042       12.24162077       19.29008090
C          17.28225802       12.24444341       17.91232140
C          16.13352232       11.62144752       17.37760103
C          15.64269583       12.39749174       16.28453337
C          14.29578313       12.50182120       16.00000578
C          13.74534671       13.73358888       15.57679950
C          12.82113836       16.31837302       16.35915315
C          12.02286924       15.14173653       16.52164420
C          12.46552606       13.84301929       16.15063970
C          12.15505853       12.57379460       16.91943957
C          13.33441181       11.69432002       16.80931227
C          13.77465277       11.01006944       17.92781862
C          15.21381787       10.91558893       18.19463020
C          15.37622991       10.94125094       19.66134189
C          16.52243470       11.52435724       20.22048795
C          17.61497931       15.95481205       19.60938778
C          17.19356651       13.61507557       21.25547885
C          16.04554284       14.72275879       15.66567669
176
MD Time 1074.88
C          10.82408756       13.16746454       10.09741872
C           8.98180352       11.59677100       10.12866561
C           9.94617874       10.47634097       10.11302783
C          11.29823595       10.77795644       10.11836327
C          11.77229083       12.10320831       10.13652729
C          13.11977250       12.74592865       10.06327534
N          12.97871033       14.09867888       10.00061024
N          14.25422942       11.94661209        9.87279500
N          17.65991675       15.34004723        9.03267448
C          15.37540496       12.57431659        9.52735445
C          16.62678920       11.88412018        9.17150410
C          16.96443433       10.53024489        9.30118709
C          18.32093140       10.18395946        9.17614537
C          19.26077289       11.17435276        8.90428903
C          18.87989190       12.51970686        8.69469141
C          17.60748633       12.88521337        9.00244359
C          16.98149340       14.18683089        9.18975213
N          15.64669233       13.94151044        9.49050358
C          11.63428813       14.42342993       10.07134345
C           9.43500538       12.89720651       10.17035626
C          17.11469391       16.58068172        9.11698350
C          19.21960438       18.04027378        8.62037613
C          13.42774163       18.40200149       10.09729454
C          12.12085959       19.05890143       10.22035047
C          11.82456074       20.43243857       10.28003814
C          10.46466025       20.89287212       10.21798744
C           9.41808271       19.94022533       10.21015411
C           9.79885874       18.50898213       10.18941441
C          11.11233930       18.06033280       10.25183674
C          11.74053603       16.79440049       10.11297250
N          13.10622046       17.02065951       10.04070806
N          11.01175841       15.64824715       10.16041652
C          17.91670442       17.78973180        9.01138465
C          19.74636218       19.37192354        8.69594009
C          18.86695070       20.41622388        9.10907497
C          17.56701630       20.14976284        9.44482711
C          17.08116325       18.85834516        9.42909322
C          15.78163698       18.26324105        9.73669675
N          15.82638045       16.87585461        9.48594904
N          14.65314259       18.96005143       10.05568990
H          13.90839598       16.41608972        9.83086438
H          14.99441960       14.68207321        9.52929823
H          10.19093016       21.94664207       10.31542919
H          12.64455915       21.14241894       10.42706885
H          16.93372288       21.01795439        9.70544652
H          19.25029139       21.44145826        9.09300240
H          20.82407456       19.63799438        8.54071535
H          19.81991503       17.18897977        8.26043342
H          19.70718284       13.24488231        8.58860790
H          20.30710941       10.87250261        8.72728907
H          18.73479262        9.19214974        9.33241790
H          16.24234998        9.71040445        9.47159809
H          12.03036944        9.95068657       10.07734025
H           9.53396488        9.45759466        9.97259272
H           7.89200879       11.41470824       10.18584417
H           8.72910731       13.74510335       10.12494842
H           9.02729141       17.72881400       10.27956160
H           8.29713258       20.15247339       10.20267622
C          10.23345399       11.69448954       13.15724425
C           8.54613180        9.94503014       13.34155885
C           9.51042162        8.93744095       13.49412383
C          10.88077636        9.29957059       13.48948653
C          11.27059563       10.65539134       13.34212153
C          12.55441604       11.46805910       13.27393500
N          12.33466862       12.82911114       13.19042439
N          13.78055962       10.87638760       13.21359169
N          17.29165134       14.22113457       12.22077302
C          14.91521717       11.57015992       12.96663346
C          16.16642032       10.87270947       12.96042775
C          16.61066498        9.56903433       13.18633204
C          17.91066172        9.14000401       13.00960227
C          18.97494215       10.11587489       12.80961681
C          18.56548766       11.39876398       12.46830207
C          17.20376479       11.78126007       12.55752061
C          16.60655282       13.08153184       12.47861770
N          15.21722007       12.89547530       12.72200185
C          10.93097130       13.01520088       13.06059895
C           8.91723345       11.32108753       13.24069247
C          16.67522777       15.40951457       12.36071041
C          18.70004924       17.03940245       12.04664368
C          12.77084014       17.02348321       13.08302487
C          11.53642387       17.72361764       13.27317279
C          11.22998529       19.05858827       13.53789854
C           9.88951187       19.45326766       13.62835298
C           8.85477513       18.58815649       13.41388115
C           9.16249001       17.23091929       13.12450637
C          10.44366210       16.78460494       13.21987578
C          11.00003171       15.45392542       13.01318357
N          12.41412594       15.64782415       12.97799856
N          10.29487225       14.27134509       12.99969631
C          17.43319738       16.71167700       12.40822893
C          19.00418538       18.38565721       12.14760765
C          18.08766096       19.34061812       12.61970971
C          16.78333933       19.02666097       12.93186227
C          16.45024655       17.67098492       12.83248976
C          15.12470469       16.97079372       12.87791558
N          15.34436680       15.65452479       12.60648105
N          13.98872047       17.64722818       13.06215834
H          13.06513043       14.82650976       12.86591889
H          14.57025502       13.67363650       12.69027234
H           9.72387194       20.44465415       14.06778253
H          12.07559423       19.76565816       13.39883777
H          16.01117300       19.74388816       13.20641197
H          18.46704899       20.36241276       12.56184134
H          19.97601614       18.73000969       11.81009937
H          19.34770307       16.23685782       11.64199588
H          19.19764936       12.25995133       12.20446403
H          19.98516455        9.76147155       12.64816620
H          18.18899521        8.07147034       13.23460048
H          15.81919763        8.82425740       13.35054673
H          11.68724146        8.58558529       13.66134407
H           9.16309334        7.87264894       13.44268652
H           7.49039526        9.71026221       13.51871553
H           8.09543146       12.06578566       13.16458036
H           8.33756435       16.53056632       12.99880189
H           7.79574220       18.86048874       13.40693966
C          13.20750142       14.02840928       22.12641236
C          14.67627477       13.87207939       22.44273991
C          15.52843530       15.03109470       22.36563768
C          14.96475449       16.44565510       21.94059587
C          13.61694816       16.50794269       21.59314372
C          12.71175630       15.29287324       21.67688756
C          12.75633774       12.76341520       21.51359074
C          13.88704306       11.90786040       21.42141326
C          15.12307215       12.53145598       21.95592783
C          16.38015347       12.43448065       21.38541070
C          16.77222060       14.84372844       21.70107729
C          15.87869945       17.05262672       21.04307481
C          15.39342158       17.74786528       19.85274112
C          13.96990569       17.86259885       19.52757123
C          13.10717824       17.26332902       20.45246864
C          11.98812302       16.56410507       19.88585241
C          11.72407306       15.30968521       20.60270340
C          11.30725986       14.10115824       19.98115700
C          11.86054385       12.82106519       20.40774583
C          14.05892394       11.02848547       20.27605130
C          13.07775562       11.10855689       19.18798238
C          12.00164013       11.96921329       19.28455971
C          11.55635362       12.75501077       18.16973245
C          11.05095741       14.05749935       18.59869500
C          11.40921380       15.24443450       17.84135952
C          11.73991732       16.54725406       18.51414855
C          12.71325803       17.12072615       17.57291093
C          13.78555939       17.82227128       18.05950975
C          17.03119583       16.06625702       20.88919573
C          16.49695675       15.94779998       16.28899154
C          17.42200189       15.87131710       17.28628857
C          17.99720917       14.59438801       17.69143811
C          17.56523034       13.38204953       17.09272388
C          16.51146870       13.48713174       16.12486673
C          14.56798737       14.83951714       15.43302584
C          14.17812672       16.15371283       15.84324310
C          15.28743924       16.84972089       16.37281516
C          15.09100427       17.64452637       17.48348027
C          16.08482583       17.59566387       18.58034315
C          17.18988236       16.71292862       18.47790340
C          18.07435861       14.64156783       19.18487746
C          17.88490188       13.47901931       19.94090906
C          17.41125418       12.24069678       19.28723898
C          17.28395186       12.24416990       17.91342935
C          16.13108256       11.61932167       17.37628783
C          15.64654192       12.39624631       16.28342629
C          14.29729586       12.50652578       15.99976215
C          13.74709986       13.73530885       15.57978151
C          12.82024421       16.32187729       16.36378649
C          12.02005252       15.14404142       16.52504391
C          12.46650489       13.84011358       16.14659907
C          12.15650190       12.57361259       16.91767572
C          13.33296871       11.69481641       16.80652848
C          13.77691362       11.00896120       17.92611348
C          15.21969210       10.91902267       18.19421202
C          15.37800100       10.94100265       19.65797694
C          16.52103136       11.52192762       20.22174540
C          17.61416699       15.95765046       19.61257011
C          17.19364365       13.61292431       21.25204461
C          16.04611826       14.72666812       15.66651489
176
MD Time 1095.55
C          10.82473801       13.16799577       10.09659911
C           8.98543544       11.59607045       10.12569225
C           9.94773363       10.47486416       10.11041627
C          11.29824605       10.78286275       10.11931568
C          11.77037872       12.10404643       10.13641355
C          13.11967307       12.74632976       10.06395895
N          12.97816259       14.10172207        9.99860562
N          14.25398272       11.94866389        9.87333285
N          17.66122489       15.33995098        9.02812891
C          15.37481892       12.57394988        9.52478963
C          16.62707949       11.88620166        9.16910090
C          16.96626893       10.53113754        9.29971719
C          18.32050518       10.18002050        9.17573877
C          19.25756674       11.17294369        8.90052141
C          18.88177481       12.51839840        8.69297144
C          17.60274039       12.88655794        8.99613281
C          16.98088393       14.19049702        9.18705693
N          15.64794180       13.94238176        9.48773096
C          11.63668222       14.41986504       10.07341845
C           9.43750796       12.89525934       10.16559020
C          17.11235176       16.58285654        9.11271687
C          19.22054212       18.04129955        8.62230803
C          13.42996193       18.40448683       10.09902862
C          12.11852991       19.06224234       10.21937088
C          11.82511893       20.43307010       10.28099011
C          10.46383012       20.89099080       10.22231458
C           9.42219393       19.94354502       10.21107847
C           9.79943106       18.50954166       10.18913071
C          11.11190900       18.05873021       10.25192422
C          11.73923736       16.79577633       10.11263976
N          13.10600442       17.01812430       10.04117701
N          11.01140284       15.64708081       10.15696300
C          17.91650268       17.79331791        9.01166613
C          19.74937858       19.36951323        8.69002640
C          18.86770003       20.41527202        9.10757593
C          17.56554017       20.14634183        9.44522541
C          17.07813142       18.85979794        9.43009952
C          15.77887166       18.26660508        9.73708495
N          15.82738435       16.87935788        9.48359447
N          14.65172342       18.95938962       10.05912268
H          13.90920008       16.41119811        9.83817032
H          14.99649501       14.67028375        9.53310660
H          10.19975091       21.95112254       10.31018070
H          12.64876094       21.14639394       10.43585292
H          16.93623657       21.01767564        9.69338280
H          19.25125676       21.44412401        9.09775008
H          20.82800357       19.64445625        8.55680101
H          19.83248600       17.18496549        8.25857447
H          19.70469512       13.22655846        8.58407906
H          20.32001283       10.87633858        8.72931872
H          18.71883858        9.18635046        9.33570239
H          16.24503196        9.71325023        9.47086659
H          12.04263165        9.95303475       10.09530807
H           9.53916103        9.46359543        9.96310232
H           7.90173284       11.41797353       10.18159121
H           8.72312853       13.76596213       10.11566034
H           9.02662953       17.71788075       10.27861679
H           8.30003571       20.15176757       10.20255981
C          10.22840477       11.69652016       13.15948947
C           8.54533613        9.94522802       13.34034392
C           9.51179096        8.93647404       13.48961762
C          10.87873522        9.30178055       13.48902361
C          11.27116756       10.65882097       13.34076335
C          12.55456499       11.46912318       13.27474322
N          12.33565244       12.82843055       13.18504038
N          13.78127463       10.87612530       13.21690996
N          17.29017842       14.21836031       12.21801808
C          14.91442919       11.56872775       12.96315422
C          16.16545047       10.87173021       12.96021347
C          16.60824808        9.56897957       13.18389672
C          17.91332351        9.14019813       13.01337079
C          18.97272344       10.11296165       12.81297741
C          18.56892157       11.39653942       12.46455163
C          17.20494336       11.78410074       12.55571688
C          16.60520329       13.08207727       12.48227025
N          15.21681000       12.89623771       12.72244471
C          10.93352882       13.01429248       13.05969150
C           8.91594193       11.32322784       13.23797887
C          16.67908133       15.41135342       12.36230232
C          18.70104146       17.04061948       12.04891413
C          12.77087935       17.02227506       13.08420656
C          11.53525542       17.72066776       13.27417196
C          11.23222543       19.05647285       13.53943812
C           9.89013739       19.45210181       13.62806865
C           8.85358145       18.58743538       13.41464656
C           9.16288757       17.23306084       13.12618712
C          10.44440871       16.78500695       13.21713984
C          11.00304570       15.45305732       13.01469294
N          12.41382746       15.64991173       12.97885469
N          10.29633802       14.27109495       12.99836574
C          17.43522318       16.71350728       12.41088413
C          19.00516409       18.38549043       12.15184597
C          18.08764028       19.33993987       12.62036836
C          16.78104322       19.02732773       12.93228936
C          16.44920984       17.67155454       12.83641561
C          15.12247941       16.97388899       12.87617472
N          15.34283427       15.65244902       12.60771810
N          13.99035643       17.64313265       13.06408291
H          13.06126917       14.83009165       12.86565787
H          14.56765131       13.67268587       12.67070140
H           9.71853467       20.44364992       14.06856437
H          12.08176084       19.77362965       13.38957742
H          16.01085043       19.75077324       13.19481574
H          18.46198443       20.36522218       12.56402451
H          19.97506989       18.72121289       11.81154457
H          19.33861206       16.24727892       11.64687172
H          19.20211374       12.25423118       12.20465493
H          19.99274453        9.75833532       12.64401316
H          18.18140707        8.07688818       13.22824560
H          15.81251533        8.82436136       13.34900030
H          11.68610802        8.58255102       13.66100522
H           9.16093473        7.88522161       13.43646069
H           7.49521813        9.71627638       13.52114702
H           8.09966507       12.07360242       13.16971955
H           8.33961205       16.53234654       12.99284952
H           7.79217342       18.86114427       13.41221097
C          13.20958434       14.02940725       22.13284236
C          14.67536817       13.87099565       22.44530483
C          15.52242169       15.03282368       22.36605718
C          14.96481645       16.44549292       21.94423405
C          13.61715248       16.50552717       21.59286155
C          12.71048799       15.29668801       21.67654203
C          12.75625087       12.76277745       21.51595118
C          13.88820901       11.90553761       21.42156169
C          15.11952330       12.53165951       21.95497250
C          16.38288858       12.43310045       21.38269971
C          16.77068428       14.84607910       21.70301600
C          15.87846530       17.04769082       21.04216996
C          15.39263090       17.74673443       19.85066720
C          13.97025052       17.86120364       19.52875097
C          13.10654014       17.26472854       20.44831637
C          11.98735226       16.56791774       19.88992182
C          11.72456893       15.30994896       20.60167589
C          11.31051785       14.09989520       19.98481426
C          11.85744929       12.82174134       20.41173804
C          14.06072673       11.02734379       20.27465892
C          13.07731749       11.10785531       19.18889395
C          11.99649510       11.96737255       19.28101209
C          11.55489121       12.75164165       18.16710423
C          11.05242714       14.05563531       18.60017447
C          11.40823920       15.24653472       17.84273547
C          11.73671082       16.54564748       18.51553231
C          12.71758408       17.12146549       17.57501461
C          13.78403546       17.82293936       18.06260748
C          17.03192190       16.06654685       20.88814169
C          16.49831155       15.94753363       16.29090700
C          17.41961370       15.87632804       17.28460762
C          18.00157121       14.58886429       17.69779149
C          17.56612385       13.38459014       17.09480332
C          16.51294969       13.48784382       16.12775454
C          14.57388655       14.84310471       15.43369073
C          14.17449810       16.15285501       15.84075281
C          15.28882082       16.85042720       16.37700474
C          15.09079260       17.64442666       17.48690551
C          16.08789179       17.59472050       18.58273675
C          17.18861186       16.71024032       18.47871520
C          18.07322676       14.64187051       19.18591394
C          17.88503314       13.47967889       19.94108982
C          17.41308538       12.23987971       19.28474965
C          17.28572886       12.24373358       17.91458939
C          16.12836266       11.61679292       17.37505810
C          15.65023380       12.39478383       16.28213997
C          14.29884803       12.51067218       15.99960444
C          13.74887412       13.73703384       15.58266886
C          12.81986299       16.32538080       16.36835620
C          12.01711805       15.14607989       16.52865743
C          12.46710383       13.83727493       16.14265642
C          12.15803079       12.57375415       16.91587558
C          13.33148321       11.69573399       16.80354723
C          13.77936747       11.00774800       17.92437031
C          15.22552115       10.92247756       18.19389402
C          15.37978899       10.94065772       19.65455203
C          16.51970717       11.51982078       20.22288104
C          17.61343885       15.96033157       19.61607846
C          17.19395368       13.61049227       21.24831968
C          16.04641953       14.73047927       15.66731929
176
MD Time 1116.22
C          10.82546425       13.16849915       10.09587258
C           8.98919532       11.59496152       10.12278283
C           9.94886363       10.47375672       10.10769765
C          11.29858486       10.78752140       10.12026920
C          11.76839395       12.10501088       10.13625461
C          13.11939612       12.74628193       10.06455917
N          12.97775664       14.10493425        9.99663262
N          14.25347612       11.95099164        9.87385795
N          17.66243318       15.33984727        9.02353284
C          15.37438618       12.57344672        9.52220245
C          16.62715907       11.88825712        9.16697986
C          16.96811222       10.53185044        9.29818922
C          18.32004569       10.17614888        9.17536674
C          19.25457462       11.17159407        8.89651487
C          18.88414341       12.51698021        8.69144859
C          17.59781291       12.88799394        8.98975802
C          16.98047058       14.19420485        9.18421745
N          15.64947682       13.94306885        9.48485303
C          11.63870609       14.41626670       10.07549774
C           9.44001098       12.89373857       10.16066646
C          17.11010762       16.58484746        9.10850712
C          19.22185446       18.04231159        8.62415116
C          13.43204434       18.40692216       10.10084531
C          12.11643185       19.06577080       10.21843960
C          11.82554227       20.43381721       10.28195354
C          10.46308469       20.88901030       10.22677318
C           9.42630751       19.94628863       10.21193163
C           9.79960358       18.51025425       10.18901269
C          11.11146758       18.05762767       10.25181497
C          11.73781736       16.79680718       10.11237584
N          13.10595071       17.01572900       10.04157736
N          11.01137103       15.64580861       10.15339895
C          17.91624422       17.79701022        9.01198788
C          19.75232813       19.36709457        8.68423405
C          18.86885826       20.41424499        9.10589963
C          17.56377706       20.14325748        9.44571844
C          17.07503169       18.86112884        9.43112738
C          15.77596557       18.26989490        9.73738431
N          15.82826006       16.88293668        9.48131663
N          14.65028964       18.95869305       10.06247447
H          13.90943871       16.40474574        9.84592001
H          14.99422844       14.66173849        9.53826136
H          10.20931744       21.95561192       10.30462770
H          12.65256352       21.15013842       10.44380298
H          16.93840240       21.01629044        9.68163613
H          19.25191033       21.44652740        9.10287759
H          20.82991517       19.64947510        8.57214611
H          19.84463137       17.18222501        8.25741746
H          19.70164852       13.20914538        8.57884808
H          20.33144647       10.88083391        8.73192797
H          18.70200078        9.17922619        9.33909319
H          16.24745193        9.71762329        9.47037738
H          12.05404461        9.95656492       10.11340430
H           9.54527085        9.46994214        9.95444138
H           7.91204949       11.42070587       10.17695121
H           8.71863641       13.78484304       10.10698504
H           9.02613091       17.70832068       10.27689286
H           8.30674879       20.15132082       10.20246093
C          10.22385891       11.69848570       13.16183735
C           8.54458975        9.94561112       13.33928772
C           9.51316117        8.93554108       13.48494432
C          10.87689995        9.30412359       13.48857731
C          11.27153477       10.66263332       13.33932574
C          12.55473018       11.46990582       13.27554759
N          12.33640277       12.82773577       13.17954589
N          13.78189028       10.87602916       13.22022944
N          17.28855132       14.21554551       12.21535233
C          14.91356275       11.56700912       12.95982599
C          16.16502161       10.87083620       12.95981699
C          16.60539523        9.56861184       13.18139025
C          17.91632728        9.14045008       13.01737438
C          18.97024459       10.10982918       12.81607466
C          18.57224949       11.39462515       12.46087445
C          17.20609443       11.78681203       12.55407128
C          16.60385178       13.08265231       12.48578868
N          15.21648524       12.89708224       12.72284754
C          10.93607237       13.01360748       13.05889727
C           8.91423283       11.32530578       13.23521008
C          16.68307353       15.41350286       12.36392736
C          18.70217438       17.04173352       12.05113345
C          12.77107941       17.02101782       13.08543015
C          11.53384468       17.71771461       13.27527040
C          11.23475327       19.05444409       13.54072815
C           9.89098829       19.45132221       13.62806256
C           8.85221983       18.58633182       13.41528355
C           9.16286104       17.23527149       13.12803660
C          10.44547927       16.78525899       13.21420149
C          11.00608368       15.45197551       13.01631839
N          12.41357795       15.65189285       12.97966861
N          10.29809115       14.27074909       12.99708483
C          17.43658347       16.71507580       12.41368145
C          19.00632192       18.38543162       12.15608964
C          18.08788822       19.33944056       12.62087763
C          16.77856495       19.02784050       12.93277074
C          16.44813959       17.67209406       12.84021910
C          15.12077035       16.97711032       12.87438002
N          15.34110680       15.65010764       12.60894765
N          13.99167287       17.63887763       13.06605542
H          13.05586907       14.83608650       12.86581860
H          14.56473146       13.67239676       12.65120939
H           9.71270832       20.44305621       14.06783188
H          12.08602751       19.78096828       13.38228676
H          16.01062543       19.75815095       13.18331523
H          18.45616959       20.36852259       12.56695434
H          19.97508504       18.71302570       11.81291914
H          19.33021895       16.25842416       11.65177454
H          19.20788284       12.24744085       12.20477855
H          20.00056942        9.75561645       12.64060568
H          18.17325245        8.08400411       13.22118559
H          15.80640446        8.82443027       13.34802014
H          11.68458847        8.57896491       13.66028544
H           9.15993617        7.89873887       13.43137118
H           7.49953141        9.72198134       13.52260348
H           8.10507212       12.08082902       13.17497995
H           8.34160053       16.53360308       12.98649075
H           7.78912827       18.86250594       13.41789183
C          13.21180454       14.03052597       22.13922697
C          14.67436120       13.87013467       22.44780606
C          15.51603704       15.03457494       22.36641237
C          14.96478120       16.44481210       21.94797554
C          13.61698447       16.50290987       21.59257840
C          12.70942706       15.30023449       21.67636862
C          12.75610417       12.76244027       21.51822661
C          13.88976787       11.90278352       21.42140696
C          15.11560180       12.53223460       21.95423423
C          16.38547385       12.43146867       21.37996697
C          16.76923967       14.84884127       21.70488069
C          15.87849588       17.04267072       21.04089968
C          15.39200329       17.74548745       19.84872216
C          13.97081657       17.85988277       19.53010465
C          13.10593369       17.26610736       20.44418053
C          11.98624398       16.57143835       19.89386240
C          11.72520446       15.31032509       20.60083514
C          11.31379861       14.09881585       19.98884682
C          11.85435309       12.82252998       20.41616713
C          14.06244889       11.02644937       20.27340067
C          13.07705376       11.10700897       19.18983433
C          11.99122439       11.96558357       19.27754188
C          11.55327486       12.74821785       18.16406509
C          11.05413992       14.05404609       18.60127282
C          11.40686584       15.24848298       17.84435621
C          11.73363966       16.54374154       18.51652025
C          12.72155295       17.12227135       17.57706210
C          13.78271254       17.82369840       18.06601091
C          17.03243568       16.06703317       20.88703076
C          16.49925296       15.94737680       16.29250368
C          17.41742796       15.88136750       17.28322470
C          18.00582228       14.58340067       17.70436230
C          17.56715858       13.38749078       17.09701821
C          16.51465332       13.48888699       16.13033523
C          14.58016344       14.84676133       15.43426779
C          14.17033053       16.15199574       15.83823724
C          15.29048122       16.85105574       16.38115844
C          15.09081601       17.64445779       17.49051241
C          16.09102999       17.59369827       18.58508259
C          17.18729529       16.70766167       18.47943950
C          18.07222641       14.64213452       19.18666446
C          17.88503398       13.48038096       19.94134216
C          17.41515740       12.23916757       19.28265341
C          17.28756516       12.24312862       17.91575923
C          16.12544758       11.61390479       17.37390940
C          15.65374082       12.39312309       16.28066412
C          14.30045367       12.51423158       15.99954038
C          13.75069572       13.73879105       15.58543901
C          12.81999187       16.32884240       16.37282919
C          12.01409878       15.14782938       16.53244936
C          12.46729492       13.83456326       16.13884446
C          12.15963521       12.57421362       16.91403487
C          13.32999023       11.69705130       16.80039352
C          13.78199429       11.00645004       17.92259030
C          15.23123061       10.92591897       18.19367557
C          15.38158480       10.94021758       19.65109850
C          16.51849271       11.51804911       20.22387206
C          17.61281993       15.96282485       19.61985894
C          17.19447327       13.60784399       21.24434643
C          16.04646807       14.73414393       15.66809585
176
MD Time 1136.89
C          10.82626309       13.16897362       10.09523632
C           8.99310425       11.59345466       10.11992984
C           9.94960099       10.47306840       10.10487717
C          11.29927993       10.79186439       10.12123397
C          11.76636620       12.10612022       10.13605345
C          13.11894548       12.74579941       10.06507300
N          12.97750286       14.10828385        9.99469723
N          14.25270738       11.95358777        9.87436962
N          17.66353352       15.33976877        9.01888871
C          15.37411995       12.57282367        9.51959571
C          16.62701863       11.89026134        9.16513639
C          16.96996138       10.53240505        9.29660148
C          18.31953672       10.17237031        9.17502276
C          19.25187158       11.17027557        8.89227783
C          18.88685936       12.51540194        8.69013360
C          17.59279286       12.88951885        8.98331404
C          16.98024799       14.19792069        9.18122754
N          15.65129908       13.94354154        9.48187350
C          11.64033627       14.41269111       10.07756696
C           9.44245675       12.89273795       10.15558730
C          17.10799039       16.58665852        9.10435811
C          19.22357162       18.04325830        8.62587735
C          13.43393818       18.40927482       10.10274430
C          12.11459429       19.06943819       10.21756108
C          11.82585135       20.43470660       10.28294009
C          10.46246216       20.88699454       10.23135160
C           9.43038739       19.94841969       10.21271517
C           9.79936183       18.51107907       10.18906308
C          11.11100913       18.05705885       10.25150675
C          11.73629585       16.79745923       10.11217539
N          13.10605779       17.01349458       10.04191395
N          11.01166358       15.64443046       10.14973352
C          17.91592684       17.80077989        9.01234482
C          19.75518721       19.36471643        8.67860385
C          18.87040717       20.41313633        9.10405061
C          17.56178464       20.14054529        9.44628313
C          17.07187220       18.86231955        9.43217140
C          15.77294988       18.27308820        9.73758873
N          15.82899026       16.88658031        9.47911846
N          14.64885318       18.95798152       10.06574406
H          13.90902488       16.39685781        9.85408177
H          14.98730884       14.65688442        9.54477684
H          10.21954170       21.95982307       10.29882249
H          12.65565093       21.15338133       10.45081666
H          16.94002772       21.01401347        9.67036791
H          19.25217999       21.44843312        9.10833593
H          20.82994972       19.65295022        8.58656922
H          19.85583095       17.18120471        8.25721983
H          19.69888905       13.19350357        8.57281620
H          20.34062608       10.88607016        8.73517576
H          18.68453908        9.17069624        9.34258475
H          16.24944704        9.72335551        9.47017218
H          12.06417172        9.96164028       10.13150708
H           9.55205819        9.47604614        9.94658824
H           7.92238095       11.42277532       10.17193969
H           8.71636405       13.80065531       10.09899163
H           9.02610030       17.70061982       10.27435894
H           8.31707700       20.15121787       10.20237999
C          10.21988032       11.70039054       13.16427463
C           8.54393636        9.94619914       13.33837953
C           9.51452140        8.93473739       13.48011106
C          10.87530977        9.30658631       13.48814432
C          11.27167601       10.66679902       13.33782172
C          12.55491113       11.47040159       13.27634316
N          12.33692159       12.82703162       13.17394764
N          13.78240140       10.87609843       13.22354251
N          17.28677974       14.21272367       12.21278310
C          14.91262178       11.56501955       12.95665937
C          16.16514435       10.87004720       12.95922756
C          16.60213584        9.56791842       13.17882002
C          17.91958874        9.14080449       13.02159683
C          18.96759681       10.10648326       12.81888531
C          18.57542576       11.39301302       12.45729019
C          17.20722881       11.78935600       12.55259338
C          16.60250358       13.08325773       12.48915617
N          15.21622958       12.89800666       12.72320641
C          10.93857464       13.01315664       13.05821270
C           8.91209899       11.32730199       13.23240265
C          16.68716200       15.41593379       12.36558458
C          18.70338453       17.04280122       12.05333796
C          12.77143513       17.01971775       13.08669689
C          11.53222400       17.71478481       13.27646617
C          11.23756913       19.05254656       13.54176066
C           9.89205906       19.45092438       13.62833560
C           8.85069406       18.58487297       13.41580272
C           9.16241739       17.23751985       13.13003908
C          10.44685016       16.78534972       13.21107278
C          11.00911794       15.45069460       13.01805022
N          12.41336558       15.65377246       12.98044179
N          10.30013742       14.27030632       12.99585731
C          17.43726883       16.71637884       12.41662462
C          19.00764805       18.38547891       12.16033711
C          18.08838718       19.33913340       12.62124827
C          16.77593036       19.02820859       12.93329583
C          16.44703690       17.67260327       12.84389028
C          15.11961695       16.98039390       12.87253306
N          15.33921713       15.64752939       12.61016342
N          13.99263337       17.63449778       13.06807859
H          13.04932826       14.84409521       12.86636704
H          14.56162612       13.67262000       12.63190907
H           9.70650934       20.44281885       14.06555967
H          12.08803375       19.78721615       13.37707679
H          16.01046652       19.76595028       13.17195671
H          18.44964589       20.37217594       12.57058540
H          19.97626100       18.70563605       11.81418585
H          19.32324612       16.26945571       11.65627558
H          19.21508184       12.23976766       12.20474556
H          20.00785257        9.75351631       12.63810844
H          18.16482273        8.09205638       13.21364054
H          15.80103152        8.82455040       13.34754413
H          11.68249440        8.57509928       13.65913560
H           9.15988098        7.91220845       13.42739436
H           7.50287690        9.72720738       13.52314559
H           8.11144347       12.08747502       13.18030325
H           8.34352247       16.53434412       12.97977925
H           7.78678916       18.86450168       13.42394265
C          13.21412398       14.03176394       22.14553146
C          14.67324798       13.86949837       22.45024028
C          15.50934062       15.03633915       22.36669536
C          14.96463421       16.44361569       21.95180148
C          13.61644506       16.50011981       21.59228086
C          12.70859185       15.30347552       21.67638970
C          12.75590592       12.76240077       21.52041691
C          13.89169624       11.89962163       21.42095295
C          15.11138153       12.53316980       21.95369751
C          16.38784564       12.42958964       21.37724789
C          16.76789303       14.85195294       21.70665415
C          15.87877686       17.03759402       21.03926261
C          15.39155685       17.74411235       19.84694699
C          13.97160558       17.85865115       19.53161085
C          13.10536840       17.26744736       20.44012523
C          11.98477336       16.57464502       19.89761840
C          11.72598593       15.31082479       20.60020365
C          11.31707968       14.09792634       19.99320657
C          11.85127560       12.82339471       20.42099841
C          14.06408784       11.02580257       20.27227280
C          13.07695880       11.10602925       19.19077273
C          11.98586381       11.96384111       19.27420001
C          11.55149803       12.74476959       18.16063483
C          11.05609484       14.05273534       18.60200172
C          11.40509072       15.25025183       17.84623158
C          11.73073278       16.54157190       18.51713295
C          12.72510806       17.12312613       17.57906810
C          13.78162867       17.82456074       18.06971479
C          17.03271117       16.06771114       20.88590810
C          16.49975523       15.94735905       16.29376805
C          17.41551065       15.88636666       17.28219739
C          18.00993271       14.57809083       17.71110380
C          17.56832982       13.39070168       17.09937918
C          16.51656518       13.49027569       16.13259393
C          14.58675034       14.85044744       15.43475338
C          14.16568989       16.15118349       15.83573380
C          15.29237684       16.85159362       16.38525052
C          15.09108189       17.64461687       17.49429037
C          16.09420603       17.59261091       18.58736830
C          17.18594287       16.70520551       18.48008348
C          18.07136425       14.64236574       19.18715102
C          17.88490840       13.48111162       19.94165412
C          17.41746306       12.23855758       19.28098430
C          17.28943761       12.24235149       17.91689835
C          16.12242633       11.61070551       17.37283447
C          15.65704037       12.39128479       16.27899074
C          14.30212327       12.51718293       15.99957418
C          13.75258971       13.74060524       15.58807111
C          12.82061921       16.33221982       16.37717522
C          12.01102705       15.14927391       16.53638435
C          12.46705669       13.83203409       16.13519187
C          12.16130496       12.57498331       16.91214856
C          13.32852530       11.69874203       16.79709576
C          13.78477098       11.00508895       17.92077350
C          15.23674539       10.92931033       18.19355780
C          15.38338086       10.93968473       19.64764906
C          16.51741465       11.51662116       20.22469693
C          17.61233552       15.96510255       19.62385233
C          17.19517615       13.60504712       21.24017043
C          16.04628844       14.73761852       15.66884976
176
MD Time 1157.56
C          10.82712866       13.16942046       10.09468695
C           8.99718427       11.59156849       10.11712503
C           9.94998644       10.47284646       10.10196162
C          11.30034465       10.79583705       10.12222100
C          11.76432655       12.10738858       10.13581288
C          13.11832619       12.74490304       10.06549760
N          12.97740913       14.11173843        9.99280536
N          14.25167648       11.95644180        9.87486687
N          17.66451964       15.33974897        9.01419841
C          15.37403057       12.57209924        9.51697280
C          16.62665289       11.89218860        9.16356393
C          16.97181558       10.53282901        9.29495203
C          18.31896550       10.16870081        9.17470125
C          19.24951642       11.16896259        8.88782349
C          18.88978146       12.51361794        8.68903595
C          17.58777106       12.89112794        8.97679581
C          16.98020743       14.20160986        9.17808176
N          15.65336548       13.94381815        9.47880031
C          11.64155673       14.40919134       10.07961150
C           9.44480492       12.89232017       10.15035690
C          17.10602653       16.58829614        9.10027383
C          19.22570827       18.04409925        8.62746608
C          13.43559832       18.41151522       10.10472432
C          12.11304188       19.07319553       10.21673935
C          11.82606448       20.43576000       10.28396074
C          10.46200186       20.88500407       10.23603745
C           9.43441484       19.94990605       10.21343132
C           9.79870364       18.51198234       10.18928235
C          11.11052837       18.05705052       10.25099795
C          11.73469374       16.79770845       10.11203255
N          13.10632331       17.01143649       10.04219187
N          11.01227713       15.64294777       10.14597631
C          17.91555198       17.80459817        9.01273083
C          19.75792696       19.36242264        8.67317464
C          18.87231910       20.41193846        9.10203643
C          17.55962449       20.13823115        9.44689490
C          17.06866310       18.86335605        9.43322605
C          15.76985423       18.27616437        9.73769247
N          15.82955939       16.89027741        9.47700247
N          14.64742495       18.95727265       10.06893053
H          13.90784286       16.38771193        9.86263087
H          14.97603261       14.65550930        9.55261300
H          10.23031665       21.96348142       10.29282338
H          12.65776165       21.15590424       10.45680410
H          16.94090921       21.01110578        9.65973795
H          19.25202196       21.44964844        9.11406924
H          20.82836297       19.65482874        8.59989260
H          19.86567675       17.18219883        8.25817062
H          19.69725383       13.18044724        8.56588350
H          20.34697553       10.89206260        8.73907726
H          18.66668206        9.16079327        9.34615344
H          16.25082170        9.73021543        9.47030121
H          12.07269138        9.96848610       10.14948231
H           9.55926670        9.48130235        9.93950543
H           7.93213370       11.42405791       10.16657423
H           8.71679919       13.81260688       10.09173038
H           9.02673938       17.69514583       10.27100446
H           8.33059518       20.15156839       10.20231393
C          10.21652015       11.70223966       13.16678793
C           8.54341175        9.94700816       13.33760779
C           9.51586770        8.93416492       13.47512717
C          10.87399679        9.30915599       13.48772033
C          11.27157460       10.67128526       13.33626474
C          12.55510454       11.47061048       13.27712474
N          12.33721348       12.82632264       13.16825270
N          13.78280425       10.87632918       13.22684209
N          17.28487511       14.20993018       12.21031706
C          14.91161438       11.56277957       12.95366278
C          16.16582057       10.86937785       12.95843709
C          16.59850946        9.56689277       13.17619272
C          17.92301671        9.14131380       13.02601991
C          18.96486458       10.10293812       12.82138795
C          18.57840932       11.39168901       12.45381865
C          17.20836013       11.79170006       12.55129023
C          16.60116192       13.08389326       12.49235706
N          15.21602185       12.89901175       12.72351672
C          10.94101110       13.01294618       13.05763402
C           8.90954787       11.32919531       13.22957304
C          16.69130237       15.41861145       12.36727298
C          18.70460193       17.04388078       12.05556698
C          12.77193905       17.01838358       13.08800872
C          11.53042876       17.71190294       13.27775627
C          11.24065818       19.05081575       13.54253139
C           9.89334187       19.45089364       13.62888367
C           8.84901586       18.58309399       13.41621769
C           9.16157011       17.23976883       13.13217772
C          10.44848988       16.78527111       13.20776641
C          11.01212272       15.44923161       13.01987808
N          12.41316928       15.65556892       12.98117814
N          10.30247987       14.26976690       12.99468684
C          17.43728385       16.71741700       12.41971386
C          19.00913786       18.38563216       12.16458467
C          18.08911301       19.33902951       12.62149306
C          16.77316753       19.02844403       12.93385324
C          16.44590249       17.67308336       12.84741989
C          15.11904776       16.98367857       12.87063670
N          15.33719866       15.64474611       12.61135949
N          13.99320735       17.63002400       13.07015451
H          13.04219103       14.85352986       12.86723744
H          14.55851840       13.67314492       12.61292561
H           9.70005267       20.44291595       14.06174903
H          12.08757861       19.79203570       13.37402405
H          16.01037390       19.77406137       13.16077582
H          18.44246873       20.37604326       12.57486552
H          19.97870328       18.69918815       11.81533820
H          19.31839767       16.27953132       11.65994624
H          19.22381141       12.23140859       12.20447173
H          20.01390292        9.75219355       12.63666715
H          18.15643596        8.10014998       13.20584757
H          15.79649975        8.82476247       13.34751658
H          11.67967865        8.57120992       13.65751696
H           9.16050212        7.92455858       13.42449205
H           7.50486649        9.73180422       13.52283328
H           8.11849199       12.09361858       13.18562697
H           8.34537672       16.53459273       12.97277479
H           7.78528792       18.86705834       13.43031625
C          13.21650462       14.03311671       22.15172284
C          14.67202233       13.86908694       22.45260510
C          15.50239507       15.03810816       22.36689792
C          14.96436112       16.44191143       21.95568947
C          13.61554049       16.49718609       21.59195766
C          12.70799745       15.30637948       21.67662532
C          12.75566835       12.76265131       21.52252388
C          13.89396486       11.89608239       21.42020881
C          15.10693815       12.53444997       21.95334508
C          16.38994401       12.42747131       21.37457784
C          16.76664926       14.85534966       21.70832014
C          15.87928882       17.03248686       21.03726248
C          15.39130946       17.74259760       19.84538048
C          13.97261827       17.85752261       19.53324849
C          13.10485047       17.26872987       20.43621151
C          11.98291996       16.57752013       19.90113595
C          11.72691799       15.31145729       20.59980284
C          11.32033778       14.09723192       19.99784123
C          11.84823478       12.82430056       20.42619483
C          14.06564432       11.02540034       20.27126827
C          13.07702304       11.10492945       19.19167894
C          11.98045009       11.96213806       19.27103358
C          11.54955414       12.74132718       18.15683877
C          11.05828960       14.05170303       18.60238000
C          11.40291413       15.25181657       17.84836575
C          11.72801679       16.53917457       18.51739512
C          12.72820164       17.12401508       17.58104717
C          13.78081710       17.82553569       18.07371126
C          17.03272463       16.06857386       20.88481885
C          16.49980103       15.94750833       16.29469424
C          17.41391736       15.89126441       17.28157263
C          18.01387704       14.57302342       17.71796984
C          17.56962981       13.39416896       17.10189428
C          16.51866903       13.49201612       16.13451920
C          14.59357297       14.85412297       15.43514429
C          14.16064759       16.15046451       15.83327891
C          15.29446108       16.85203095       16.38925794
C          15.09159674       17.64489864       17.49822602
C          16.09738541       17.59147260       18.58958277
C          17.18456689       16.70288190       18.48065746
C          18.07064623       14.64257021       19.18740114
C          17.88466248       13.48185800       19.94201213
C          17.41999440       12.23804596       19.27976945
C          17.29132430       12.24140090       17.91796895
C          16.11939057       11.60724738       17.37182114
C          15.66011774       12.38929116       16.27711422
C          14.30386314       12.51951381       15.99970617
C          13.75457977       13.74249903       15.59054663
C          12.82172732       16.33546927       16.38136749
C          12.00793505       15.15040341       16.54042773
C          12.46637496       13.82973964       16.13172310
C          12.16302981       12.57605403       16.91021025
C          13.32712391       11.70077574       16.79368463
C          13.78767187       11.00368703       17.91891910
C          15.24199072       10.93261322       18.19354373
C          15.38517091       10.93906258       19.64423744
C          16.51649602       11.51554161       20.22533557
C          17.61201046       15.96713982       19.62799485
C          17.19603376       13.60217055       21.23584030
C          16.04590728       14.74086484       15.66958599
176
MD Time 1178.23
C          10.82805248       13.16984190       10.09422054
C           9.00145383       11.58932957       10.11435996
C           9.95006677       10.47313095       10.09895868
C          11.30177889       10.79939966       10.12324131
C          11.76230587       12.10882498       10.13553571
C          13.11754474       12.74361874       10.06583010
N          12.97748051       14.11526468        9.99096293
N          14.25038567       11.95954170        9.87534839
N          17.66538725       15.33982114        9.00946359
C          15.37412447       12.57129281        9.51433823
C          16.62606117       11.89401336        9.16225418
C          16.97367426       10.53315445        9.29323919
C          18.31832297       10.16514606        9.17439781
C          19.24755092       11.16763231        8.88316972
C          18.89277778       12.51159511        8.68816220
C          17.58283755       12.89281412        8.97019936
C          16.98033724       14.20523720        9.17477559
N          15.65559164       13.94395917        9.47564698
C          11.64235796       14.40581803       10.08161660
C           9.44703054       12.89251949       10.14498145
C          17.10423957       16.58976946        9.09625883
C          19.22826337       18.04480625        8.62890450
C          13.43698475       18.41361568       10.10678330
C          12.11179497       19.07699375       10.21597822
C          11.82619596       20.43699304       10.28502522
C          10.46174313       20.88309369       10.24081727
C           9.43838905       19.95072002       10.21408291
C           9.79763925       18.51293816       10.18966872
C          11.11002104       18.05762171       10.25028740
C          11.73303181       16.79754073       10.11194133
N          13.10674272       17.00956519       10.04241643
N          11.01320567       15.64136275       10.14213745
C          17.91512488       17.80843568        9.01313862
C          19.76051381       19.36025139        8.66798280
C          18.87455808       20.41064267        9.09986744
C          17.55736030       20.13633273        9.44752850
C          17.06541615       18.86422906        9.43428578
C          15.76670776       18.27910307        9.73769003
N          15.82995365       16.89401528        9.47497061
N          14.64601456       18.95658361       10.07203321
H          13.90576617       16.37752878        9.87154529
H          14.96125511       14.65682461        9.56165719
H          10.24151352       21.96634973       10.28669590
H          12.65871232       21.15756114       10.46169453
H          16.94084326       21.00786171        9.64989960
H          19.25142505       21.45003788        9.12001588
H          20.82551887       19.65510737        8.61194775
H          19.87388504       17.18533910        8.26038481
H          19.69745308       13.17064759        8.55796631
H          20.35013810       10.89876314        8.74360651
H          18.64862482        9.14967453        9.34975482
H          16.25136633        9.73793034        9.47081907
H          12.07940095        9.97718748       10.16719042
H           9.56664636        9.48515286        9.93315098
H           7.94075922       11.42444527       10.16087143
H           8.72021176       13.82017750       10.08523344
H           9.02814060       17.69213874       10.26683901
H           8.34665005       20.15250652       10.20225576
C          10.21381591       11.70403732       13.16936383
C           8.54303981        9.94804985       13.33696113
C           9.51720107        8.93392404       13.47000370
C          10.87298560        9.31182237       13.48729978
C          11.27121750       10.67605601       13.33466889
C          12.55530529       11.47053757       13.27788672
N          12.33728512       12.82561231       13.16246872
N          13.78309610       10.87671600       13.23012125
N          17.28285050       14.20720132       12.20796045
C          14.91055233       11.56031247       12.95084327
C          16.16704436       10.86883817       12.95743998
C          16.59456391        9.56553559       13.17351455
C          17.92651571        9.14203213       13.03062443
C          18.96212243       10.09921755       12.82356362
C          18.58116462       11.39063531       12.45047931
C          17.20950376       11.79381685       12.55016675
C          16.59982875       13.08455764       12.49537681
N          15.21583742       12.90009934       12.72377323
C          10.94335943       13.01297879       13.05715754
C           8.90660196       11.33096444       13.22673737
C          16.69544834       15.42149585       12.36899125
C          18.70575843       17.04502328       12.05785781
C          12.77258031       17.01702477       13.08936791
C          11.52849712       17.70909176       13.27913666
C          11.24398999       19.04927788       13.54304050
C           9.89482645       19.45120569       13.62969770
C           8.84720484       18.58103695       13.41654468
C           9.16033885       17.24197581       13.13443451
C          10.45035949       16.78501812       13.20429584
C          11.01507349       15.44760532       13.02179104
N          12.41296018       15.65731132       12.98188354
N          10.30511969       14.26913201       12.99357702
C          17.43664644       16.71819409       12.42294577
C          19.01079407       18.38589359       12.16882579
C          18.09003587       19.33913755       12.62162676
C          16.77030695       19.02856227       12.93443099
C          16.44473596       17.67353630       12.85079939
C          15.11908016       16.98690535       12.86869517
N          15.33508516       15.64179195       12.61253018
N          13.99337127       17.62548532       13.07228455
H          13.03512185       14.86364615       12.86833768
H          14.55562511       13.67372498       12.59439795
H           9.69345023       20.44336113       14.05642939
H          12.08463038       19.79522233       13.37316413
H          16.01036706       19.78234598       13.14980273
H          18.43471125       20.37999852       12.57973531
H          19.98241386       18.69377963       11.81640397
H          19.31627729       16.28790359       11.66240951
H          19.23413311       12.22255051       12.20388398
H          20.01816738        9.75175158       12.63639849
H          18.14841516        8.10732951       13.19804343
H          15.79285034        8.82506181       13.34788935
H          11.67604313        8.56752456       13.65540310
H           9.16151527        7.93473949       13.42261842
H           7.50523075        9.73565089       13.52171550
H           8.12587187       12.09939168       13.19088758
H           8.34717010       16.53438826       12.96554377
H           7.78469836       18.87010528       13.43695888
C          13.21890866       14.03457704       22.15776954
C          14.67067804       13.86889913       22.45489878
C          15.49526573       15.03987458       22.36701165
C          14.96394777       16.43971166       21.95961358
C          13.61428215       16.49413762       21.59159978
C          12.70765561       15.30891984       21.67709301
C          12.75540704       12.76318006       21.52455049
C          13.89653925       11.89220287       21.41918864
C          15.10234770       12.53605645       21.95315833
C          16.39171379       12.42512575       21.37199186
C          16.76551180       14.85896588       21.70986372
C          15.88000751       17.02737414       21.03490870
C          15.39127858       17.74093262       19.84405903
C          13.97385395       17.85651002       19.53499750
C          13.10438243       17.26993548       20.43249703
C          11.98066862       16.58005034       19.90436428
C          11.72800339       15.31222925       20.59965262
C          11.32354920       14.09673695       20.00269546
C          11.84524659       12.82521451       20.43171724
C          14.06712176       11.02523655       20.27037701
C          13.07723342       11.10372483       19.19252351
C          11.97502085       11.96046611       19.26808527
C          11.54743742       12.73792044       18.15270721
C          11.06072049       14.05094554       18.60243283
C          11.40033973       15.25315519       17.85075689
C          11.72551571       16.53658566       18.51733479
C          12.73079484       17.12492657       17.58301361
C          13.78030529       17.82662945       18.07798909
C          17.03245528       16.06961210       20.88380751
C          16.49938266       15.94785047       16.29528447
C          17.41269281       15.89600677       17.28138543
C          18.01763381       14.56828170       17.72491431
C          17.57104757       13.39783563       17.10456826
C          16.52094701       13.49410601       16.13610325
C          14.60055058       14.85774738       15.43543741
C          14.15527974       16.14988172       15.83090697
C          15.29668576       16.85236126       16.39316006
C          15.09236597       17.64529623       17.50230332
C          16.10053376       17.59029827       18.59171608
C          17.18318217       16.70069811       18.48117446
C          18.07007781       14.64275397       19.18744752
C          17.88430420       13.48260817       19.94240150
C          17.42274253       12.23762799       19.27902841
C          17.29320500       12.24027793       17.91893712
C          16.11643276       11.60358595       17.37085239
C          15.66296507       12.38716585       16.27503163
C          14.30567530       12.52122056       15.99993327
C          13.75668709       13.74449159       15.59285018
C          12.82329208       16.33854635       16.38538270
C          12.00485467       15.15121231       16.54454559
C          12.46524360       13.82772842       16.12845865
C          12.16479972       12.57741557       16.90821318
C          13.32582155       11.70311909       16.79019292
C          13.79066858       11.00226725       17.91702552
C          15.24689300       10.93578791       18.19363778
C          15.38694973       10.93835538       19.64089816
C          16.51575622       11.51481137       20.22576962
C          17.61186880       15.96891490       19.63221957
C          17.19701553       13.59928251       21.23140710
C          16.04535346       14.74385008       15.67030907
176
MD Time 1198.90
C          10.82902358       13.17024087       10.09383265
C           9.00592262       11.58677178       10.11162631
C           9.94989204       10.47394898       10.09587600
C          11.30356956       10.80252814       10.12430525
C          11.76033429       12.11043267       10.13522471
C          13.11660903       12.74197710       10.06606754
N          12.97771921       14.11882872        9.98917593
N          14.24884015       11.96287409        9.87581230
N          17.66613341       15.34001733        9.00468604
C          15.37440358       12.57042432        9.51169784
C          16.62524789       11.89571120        9.16119716
C          16.97553537       10.53341576        9.29146200
C          18.31760367       10.16170195        9.17410921
C          19.24599949       11.16626459        8.87833869
C          18.89573761       12.50932111        8.68751420
C          17.57807905       12.89456753        8.96352268
C          16.98062395       14.20876781        9.17130532
N          15.65786583       13.94405096        9.47243269
C          11.64273729       14.40261910       10.08356731
C           9.44912182       12.89334398       10.13946935
C          17.10264994       16.59109003        9.09231847
C          19.23121996       18.04536363        8.63018739
C          13.43806235       18.41554948       10.10891828
C          12.11086969       19.08078433       10.21528144
C          11.82625500       20.43841477       10.28614137
C          10.46172401       20.88131032       10.24567646
C           9.44232713       19.95083905       10.21467338
C           9.79619070       18.51392959       10.19021817
C          11.10948386       18.05878239       10.24937453
C          11.73133081       16.79695240       10.11189588
N          13.10730804       17.00788715       10.04259340
N          11.01444028       15.63967819       10.13822767
C          17.91465483       17.81226249        9.01355968
C          19.76291033       19.35823454        8.66306178
C          18.87708123       20.40923916        9.09755643
C          17.55505566       20.13486079        9.44815888
C          17.06214485       18.86493444        9.43534493
C          15.76353972       18.28188350        9.73757618
N          15.83016131       16.89777944        9.47302401
N          14.64463046       18.95593218       10.07505169
H          13.90267815       16.36655696        9.88080091
H          14.94420801       14.65968271        9.57172286
H          10.25298174       21.96824789       10.28051256
H          12.65841396       21.15829102       10.46544147
H          16.93964120       21.00458832        9.64099364
H          19.25041195       21.44953139        9.12611013
H          20.82187253       19.65383089        8.62258088
H          19.88030124       17.19059416        8.26390217
H          19.69994637       13.16453480        8.54901906
H          20.34997843       10.90606516        8.74870091
H          18.63053227        9.13761807        9.35332350
H          16.25087802        9.74621036        9.47177989
H          12.08422134        9.98768794       10.18449361
H           9.57397992        9.48715257        9.92749065
H           7.94781487       11.42385446       10.15484453
H           8.72667649       13.82309608       10.07951536
H           9.03028452       17.69170317       10.26189175
H           8.36437420       20.15418878       10.20219426
C          10.21179062       11.70578662       13.17198888
C           8.54282937        9.94933087       13.33642916
C           9.51852407        8.93410292       13.46475296
C          10.87229252        9.31457831       13.48687576
C          11.27059549       10.68107233       13.33304882
C          12.55550670       11.47019269       13.27862304
N          12.33714537       12.82490304       13.15660417
N          13.78327542       10.87725226       13.23337297
N          17.28072010       14.20457348       12.20571935
C          14.90945066       11.55764369       12.94820676
C          16.16880275       10.86843358       12.95623304
C          16.59035400        9.56385523       13.17079132
C          17.92998948        9.14300695       13.03539166
C          18.95943296       10.09535512       12.82539600
C          18.58366276       11.38983247       12.44729094
C          17.21067600       11.79568425       12.54922597
C          16.59850583       13.08524903       12.49820165
N          15.21565069       12.90127002       12.72397019
C          10.94559937       13.01325415       13.05677964
C           8.90329782       11.33258951       13.22391129
C          16.69955244       15.42454180       12.37073751
C          18.70679623       17.04626324       12.06024033
C          12.77334385       17.01564987       13.09077678
C          11.52646971       17.70637250       13.28060218
C          11.24751849       19.04794981       13.54329324
C           9.89650002       19.45182760       13.63076382
C           8.84528818       18.57874965       13.41680206
C           9.15874874       17.24409365       13.13679014
C          10.45241313       16.78458846       13.20067538
C          11.01794717       15.44583592       13.02377769
N          12.41270432       15.65903561       12.98256516
N          10.30805614       14.26840338       12.99253147
C          17.43538731       16.71871671       12.42631330
C          19.01262679       18.38626768       12.17305088
C          18.09112145       19.33946330       12.62166568
C          16.76738155       19.02858225       12.93501661
C          16.44353559       17.67396423       12.85402097
C          15.11971984       16.99001758       12.86671420
N          15.33291076       15.63870257       12.61366986
N          13.99311027       17.62091035       13.07446926
H          13.02886167       14.87359564       12.86955746
H          14.55316750       13.67410943       12.57647639
H           9.68680989       20.44420279       14.04965801
H          12.07933237       19.79671426       13.37448647
H          16.01047314       19.79064882       13.13906622
H          18.42646495       20.38393808       12.58512873
H          19.98728933       18.68946164       11.81744606
H          19.31729748       16.29403078       11.66339897
H          19.24605293       12.21334906       12.20292655
H          20.02025369        9.75223371       12.63738411
H          18.14106144        8.11268195       13.19044467
H          15.79006384        8.82540008       13.34862271
H          11.67154775        8.56423206       13.65278203
H           9.16266254        7.94184744       13.42172715
H           7.50385502        9.73866312       13.51982283
H           8.13320055       12.10496347       13.19602319
H           8.34891489       16.53378354       12.95815884
H           7.78503186       18.87357717       13.44381156
C          13.22129881       14.03613510       22.16364121
C          14.66920928       13.86893238       22.45712005
C          15.48801998       15.04163124       22.36702840
C          14.96338037       16.43703340       21.96354449
C          13.61268642       16.49100301       21.59120065
C          12.70757459       15.31107489       21.67780756
C          12.75514030       12.76397142       21.52650048
C          13.89938059       11.88802625       21.41791133
C          15.09768537       12.53796729       21.95311764
C          16.39310551       12.42256939       21.36952417
C          16.76448261       14.86273615       21.71127148
C          15.88090425       17.02227965       21.03221666
C          15.39148100       17.73910817       19.84301621
C          13.97531015       17.85562520       19.53683953
C          13.10396292       17.27104418       20.42903530
C          11.97801035       16.58222671       19.90725703
C          11.72924273       15.31314417       20.59977096
C          11.32669024       14.09644497       20.00771179
C          11.84232511       12.82610598       20.43752461
C          14.06852595       11.02530231       20.26958612
C          13.07757375       11.10243240       19.19327812
C          11.96961444       11.95881631       19.26539287
C          11.54514334       12.73457840       18.14827523
C          11.06338230       14.05045553       18.60219106
C          11.39737453       15.25424843       17.85339712
C          11.72325068       16.53384128       18.51698257
C          12.73285806       17.12585222       17.58498151
C          13.78011426       17.82784507       18.08253331
C          17.03188598       16.07081422       20.88291675
C          16.49850310       15.94840867       16.29554941
C          17.41187030       15.90054624       17.28165814
C          18.02118503       14.56394298       17.73189075
C          17.57256890       13.40164265       17.10740224
C          16.52337999       13.49653461       16.13734212
C          14.60759680       14.86128042       15.43562936
C          14.14966662       16.14947378       15.82864926
C          15.29900234       16.85258182       16.39693852
C          15.09339362       17.64580183       17.50650390
C          16.10361733       17.58910373       18.59375964
C          17.18180612       16.69865868       18.48164990
C          18.06966404       14.64292292       19.18732759
C          17.88384324       13.48335111       19.94280660
C          17.42569735       12.23729813       19.27877254
C          17.29506152       12.23898604       17.91977396
C          16.11364420       11.59977886       17.36990718
C          15.66558121       12.38493379       16.27274302
C          14.30755761       12.52230802       16.00024910
C          13.75892924       13.74659746       15.59496951
C          12.82528248       16.34140731       16.38920115
C          12.00181679       15.15169893       16.54870492
C          12.46366493       13.82604476       16.12541506
C          12.16660461       12.57905664       16.90615091
C          13.32465310       11.70573643       16.78665499
C          13.79373046       11.00085302       17.91509096
C          15.25138102       10.93879437       18.19384510
C          15.38871313       10.93756823       19.63766604
C          16.51521078       11.51442783       20.22598240
C          17.61193333       15.97040924       19.63645799
C          17.19808931       13.59644897       21.22692380
C          16.04465819       14.74654688       15.67102324
176
MD Time 1219.57
C          10.83002891       13.17062155       10.09351832
C           9.01058663       11.58393542       10.10891609
C           9.94951295       10.47530900       10.09272047
C          11.30569073       10.80521418       10.12542178
C          11.75844134       12.11220886       10.13488264
C          13.11552788       12.74001378       10.06620717
N          12.97812444       14.12239664        9.98745038
N          14.24704879       11.96642346        9.87625602
N          17.66675577       15.34036785        8.99986805
C          15.37486523       12.56951470        9.50905890
C          16.62422269       11.89725984        9.16038121
C          16.97739378       10.53364707        9.28962077
C          18.31680530       10.15835631        9.17383307
C          19.24486888       11.16484218        8.87335638
C          18.89858074       12.50681021        8.68708720
C          17.57357665       12.89637565        8.95676631
C          16.98105307       14.21216774        9.16766799
N          15.66006685       13.94418679        9.46918109
C          11.64269973       14.39963890       10.08544859
C           9.45107857       12.89477650       10.13383148
C          17.10127472       16.59227131        9.08845909
C          19.23454496       18.04576834        8.63131710
C          13.43880187       18.41729159       10.11112542
C          12.11027770       19.08452012       10.21465270
C          11.82624568       20.44002674       10.28731503
C          10.46198016       20.87969122       10.25059929
C           9.44626244       19.95024680       10.21520674
C           9.79439118       18.51494911       10.19092441
C          11.10891508       18.06053293       10.24825950
C          11.72961136       16.79595065       10.11189053
N          13.10800756       17.00640576       10.04272905
N          11.01596867       15.63789797       10.13425831
C          17.91415493       17.81604872        9.01398442
C          19.76507701       19.35639764        8.65844173
C          18.87983996       20.40771746        9.09511821
C          17.55277085       20.13382035        9.44876209
C          17.05886513       18.86547357        9.43639760
C          15.76037869       18.28448491        9.73734607
N          15.83017327       16.90155391        9.47116300
N          14.64327967       18.95533580       10.07798567
H          13.89848350       16.35505797        9.89036817
H          14.92626645       14.66282781        9.58256439
H          10.26455067       21.96906527       10.27435136
H          12.65687506       21.15812045       10.46802466
H          16.93715093       21.00157481        9.63314096
H          19.24903805       21.44812469        9.13228389
H          20.81794347       19.65108675        8.63165736
H          19.88490230       17.19777260        8.26868798
H          19.70484968       13.16222647        8.53905598
H          20.34658332       10.91380809        8.75426626
H          18.61254714        9.12500185        9.35677640
H          16.24918099        9.75477174        9.47323234
H          12.08720367        9.99978717       10.20126399
H           9.58110421        9.48702525        9.92250871
H           7.95301455       11.42223610       10.14850245
H           8.73608262       13.82133357       10.07457287
H           9.03303943       17.69380375       10.25621005
H           8.38272239       20.15678928       10.20211393
C          10.21045245       11.70749016       13.17464942
C           8.54277259        9.95085237       13.33600270
C           9.51983692        8.93476609       13.45938817
C          10.87192460        9.31741961       13.48644010
C          11.26970412       10.68629276       13.33141953
C          12.55570010       11.46959053       13.27932728
N          12.33680560       12.82419657       13.15066841
N          13.78334213       10.87792922       13.23659027
N          17.27849847       14.20208308       12.20359991
C          14.90832756       11.55480139       12.94575790
C          16.17107580       10.86816484       12.95481560
C          16.58594048        9.56186742       13.16802870
C          17.93334462        9.14426909       13.04030466
C          18.95684596       10.09139396       12.82687172
C          18.58588262       11.38926113       12.44427114
C          17.21189351       11.79728576       12.54846910
C          16.59719541       13.08596505       12.50081841
N          15.21543768       12.90252131       12.72410181
C          10.94771315       13.01376837       13.05649665
C           8.89968355       11.33405326       13.22110989
C          16.70356677       15.42769893       12.37250931
C          18.70767468       17.04761070       12.06273242
C          12.77421091       17.01426705       13.09223765
C          11.52438872       17.70376524       13.28214675
C          11.25118301       19.04683792       13.54329968
C           9.89834787       19.45271926       13.63206388
C           8.84329973       18.57628470       13.41700997
C           9.15682973       17.24607195       13.13922407
C          10.45459922       16.78398255       13.19692051
C          11.02072298       15.44394507       13.02582602
N          12.41236823       15.66077828       12.98323050
N          10.31128553       14.26758368       12.99155374
C          17.43354884       16.71899464       12.42980582
C          19.01465213       18.38676098       12.17724763
C          18.09233181       19.34000936       12.62162725
C          16.76442605       19.02852497       12.93559720
C          16.44229931       17.67436965       12.85707735
C          15.12095902       16.99296251       12.86470138
N          15.33070979       15.63551497       12.61477307
N          13.99241960       17.61632593       13.07670799
H          13.02415146       14.88251333       12.87078151
H          14.55134219       13.67407208       12.55931599
H           9.68023390       20.44551656       14.04151603
H          12.07199734       19.79659495       13.37793430
H          16.01072476       19.79880226       13.12859500
H          18.41783799       20.38778258       12.59097418
H          19.99312966       18.68624202       11.81855951
H          19.32160434       16.29766850       11.66280953
H          19.25950706       12.20391201       12.20156572
H          20.01994283        9.75362213       12.63966707
H          18.13462713        8.11545505       13.18322990
H          15.78806111        8.82568722       13.34968591
H          11.66621971        8.56147181       13.64965830
H           9.16375833        7.94525100       13.42177679
H           7.50079431        9.74079696       13.51716492
H           8.14008258       12.11052281       13.20097594
H           8.35062311       16.53283920       12.95069755
H           7.78623690       18.87741549       13.45081145
C          13.22363855       14.03777859       22.16930888
C          14.66761086       13.86918291       22.45926803
C          15.48072647       15.04337095       22.36694061
C          14.96264560       16.43389838       21.96744979
C          13.61077429       16.48781040       21.59075614
C          12.70775898       15.31282771       21.67878077
C          12.75488845       12.76500650       21.52837815
C          13.90244661       11.88360124       21.41640040
C          15.09302437       12.54015734       21.95320261
C          16.39407635       12.41982322       21.36720769
C          16.76356211       14.86659625       21.71253177
C          15.88194629       17.01722625       21.02920744
C          15.39193247       17.73711662       19.84228227
C          13.97698241       17.85487858       19.53875853
C          13.10358682       17.27203556       20.42587486
C          11.97494299       16.58404482       19.90977319
C          11.73063430       15.31420217       20.60017345
C          11.32973762       14.09635849       20.01283189
C          11.83948251       12.82694721       20.44357432
C          14.06986467       11.02558608       20.26888006
C          13.07802526       11.10107050       19.19391604
C          11.96426931       11.95717957       19.26298890
C          11.54266875       12.73132887       18.14358284
C          11.06626785       14.05022199       18.60169040
C          11.39402909       15.25508025       17.85627245
C          11.72123982       16.53097730       18.51637099
C          12.73437147       17.12678710       17.58696462
C          13.78025811       17.82918203       18.08732481
C          17.03100417       16.07216602       20.88218601
C          16.49717616       15.94920278       16.29550863
C          17.41147102       15.90484129       17.28239976
C          18.02451573       14.56007837       17.73885209
C          17.57417665       13.40553024       17.11039345
C          16.52594801       13.49928351       16.13823554
C          14.61462093       14.86468336       15.43571675
C          14.14389199       16.14927420       15.82653373
C          15.30136262       16.85269361       16.40057763
C          15.09468219       17.64640641       17.51080699
C          16.10660340       17.58790522       18.59570626
C          17.18045832       16.69676562       18.48210118
C          18.06940949       14.64308287       19.18708296
C          17.88329080       13.48407689       19.94321126
C          17.42884741       12.23704995       19.27900460
C          17.29687800       12.23753116       17.92045642
C          16.11111319       11.59588457       17.36896130
C          15.66797194       12.38262072       16.27025164
C          14.30950385       12.52278950       16.00064387
C          13.76131968       13.74882635       15.59689521
C          12.82766142       16.34401006       16.39280709
C          11.99885076       15.15186552       16.55287387
C          12.46164957       13.82472847       16.12260470
C          12.16843396       12.58096455       16.90401752
C          13.32365223       11.70858997       16.78310588
C          13.79682518       10.99946746       17.91311422
C          15.25538768       10.94159324       18.19417084
C          15.39045775       10.93670695       19.63457583
C          16.51487144       11.51438507       20.22595922
C          17.61222482       15.97160771       19.64064180
C          17.19922159       13.59373217       21.22244457
C          16.04385481       14.74893360       15.67173276
176
MD Time 1240.24
C          10.83105415       13.17098872       10.09327203
C           9.01542491       11.58086612       10.10622162
C           9.94898004       10.47719691       10.08949734
C          11.30810564       10.80746638       10.12659804
C          11.75665456       12.11414390       10.13451243
C          13.11431204       12.73776675       10.06624595
N          12.97869250       14.12593458        9.98579239
N          14.24502416       11.97017481        9.87667612
N          17.66725365       15.34090048        8.99501213
C          15.37550008       12.56858328        9.50643070
C          16.62300090       11.89863953        9.15979318
C          16.97923932       10.53387983        9.28771754
C          18.31592731       10.15509194        9.17356743
C          19.24414735       11.16335022        8.86825226
C          18.90126152       12.50410424        8.68686841
C          17.56940377       12.89822306        8.94993341
C          16.98160864       14.21540469        9.16386184
N          15.66208000       13.94445035        9.46591813
C          11.64225829       14.39691726       10.08724543
C           9.45291227       12.89677483       10.12808114
C          17.10012722       16.59332927        9.08468788
C          19.23819029       18.04603067        8.63230311
C          13.43918081       18.41881871       10.11340007
C          12.11002647       19.08815655       10.21409566
C          11.82616676       20.44182324       10.28854978
C          10.46254356       20.87826278       10.25556924
C           9.45024016       19.94893470       10.21568764
C           9.79228340       18.51599971       10.19177878
C          11.10831417       18.06286279       10.24694367
C          11.72789505       16.79455414       10.11192000
N          13.10882458       17.00512263       10.04283029
N          11.01777389       15.63602626       10.13024128
C          17.91364187       17.81976453        9.01440238
C          19.76697459       19.35476012        8.65414914
C          18.88278134       20.40606680        9.09256918
C          17.55056061       20.13321249        9.44931606
C          17.05559491       18.86585377        9.43743778
C          15.75725213       18.28688725        9.73699555
N          15.82998283       16.90532107        9.46938692
N          14.64196777       18.95481160       10.08083491
H          13.89313067       16.34328337        9.90020827
H          14.90874354       14.66511052        9.59390190
H          10.27603345       21.96876859       10.26829352
H          12.65420429       21.15716382       10.46945181
H          16.93327476       20.99906522        9.62643704
H          19.24738831       21.44587683        9.13846864
H          20.81428093       19.64699616        8.63906490
H          19.88779984       17.20652230        8.27463300
H          19.71190889       13.16350983        8.52816553
H          20.34026226       10.92178369        8.76018195
H          18.59479927        9.11227694        9.36001692
H          16.24615687        9.76337187        9.47521177
H          12.08851832       10.01315518       10.21738950
H           9.58792513        9.48471044        9.91821749
H           7.95626525       11.41958045       10.14184978
H           8.74813053       13.81511157       10.07038388
H           9.03616426       17.69826110       10.24985752
H           8.40054111       20.16048959       10.20199561
C          10.20979514       11.70914931       13.17733171
C           8.54284548        9.95260984       13.33567375
C           9.52113475        8.93594544       13.45392308
C          10.87188092        9.32034659       13.48598327
C          11.26854277       10.69167375       13.32979658
C          12.55587718       11.46874882       13.27999248
N          12.33627955       12.82349310       13.14467171
N          13.78329773       10.87873967       13.23976536
N          17.27620088       14.19976492       12.20160825
C          14.90720219       11.55181181       12.94350131
C          16.17383854       10.86802827       12.95318905
C          16.58138696        9.55959599       13.16523219
C          17.93649299        9.14582341       13.04534957
C          18.95439731       10.08738548       12.82798047
C          18.58781152       11.38890345       12.44143592
C          17.21317195       11.79860994       12.54789585
C          16.59590061       13.08670265       12.50321473
N          15.21517746       12.90384595       12.72416271
C          10.94968567       13.01451410       13.05630488
C           8.89581625       11.33534350       13.21834759
C          16.70744371       15.43091303       12.37430334
C          18.70837524       17.04904856       12.06533745
C          12.77515900       17.01288289       13.09375243
C          11.52229757       17.70128970       13.28376348
C          11.25490876       19.04593795       13.54307504
C           9.90035361       19.45383536       13.63357619
C           8.84127871       18.57369847       13.41718979
C           9.15461502       17.24785918       13.14171465
C          10.45686162       16.78320283       13.19304791
C          11.02338379       15.44195596       13.02792333
N          12.41192546       15.66256783       12.98388609
N          10.31480040       14.26667512       12.99064726
C          17.43118359       16.71904034       12.43340983
C          19.01689004       18.38738174       12.18140194
C          18.09362641       19.34077486       12.62152970
C          16.76147694       19.02841294       12.93615951
C          16.44102454       17.67475562       12.85996195
C          15.12277598       16.99569227       12.86266632
N          15.32851628       15.63226639       12.61583468
N          13.99130603       17.61175795       13.07899885
H          13.02163732       14.88963353       12.87190653
H          14.55030332       13.67343485       12.54306787
H           9.67381885       20.44739520       14.03210326
H          12.06310517       19.79509669       13.38340383
H          16.01115099       19.80663676       13.11841963
H          18.40895316       20.39147973       12.59719566
H          19.99966105       18.68409178       11.81986283
H          19.32904393       16.29890511       11.66072042
H          19.27435439       12.19429093       12.19979201
H          20.01719337        9.75584064       12.64325040
H          18.12929493        8.11517774       13.17652720
H          15.78672137        8.82580620       13.35105545
H          11.66014483        8.55933494       13.64605115
H           9.16472831        7.94469780       13.42273325
H           7.49626872        9.74204892       13.51373183
H           8.14613875       12.11625308       13.20569384
H           8.35230036       16.53161625       12.94323995
H           7.78820312       18.88156904       13.45789335
C          13.22589227       14.03949310       22.17474565
C          14.66587867       13.86964556       22.46134261
C          15.47345432       15.04508680       22.36674178
C          14.96173084       16.43033315       21.97129453
C          13.60857092       16.48458746       21.59026454
C          12.70820938       15.31416671       21.68002092
C          12.75467301       12.76626329       21.53018909
C          13.90569250       11.87898092       21.41468402
C          15.08843442       12.54259834       21.95339280
C          16.39459157       12.41691221       21.36507356
C          16.76274909       14.87048482       21.71363526
C          15.88309711       17.01223623       21.02590717
C          15.39264706       17.73495189       19.84188324
C          13.97886442       17.85427848       19.54074145
C          13.10324573       17.27288947       20.42305802
C          11.97147167       16.58550500       19.91187795
C          11.73217405       15.31540014       20.60087306
C          11.33266863       14.09647919       20.01799773
C          11.83672843       12.82771355       20.44982212
C          14.07114751       11.02607337       20.26824051
C          13.07856759       11.09965802       19.19441229
C          11.95902311       11.95554692       19.26090005
C          11.54001220       12.72819796       18.13867367
C          11.06936771       14.05023023       18.60097048
C          11.39031756       15.25563847       17.85936300
C          11.71949813       16.52802893       18.51553385
C          12.73532545       17.12773005       17.58897677
C          13.78074375       17.83063578       18.09234051
C          17.02980283       16.07365100       20.88164985
C          16.49542678       15.95024887       16.29519041
C          17.41150411       15.90885584       17.28360627
C          18.02761327       14.55675177       17.74575041
C          17.57585081       13.40943937       17.11353550
C          16.52863030       13.50232687       16.13878705
C          14.62152916       14.86791926       15.43569599
C          14.13804252       16.14931076       15.82458400
C          15.30371966       16.85270164       16.40406476
C          15.09623240       17.64709994       17.51518999
C          16.10946081       17.58671876       18.59755050
C          17.17915991       16.69501879       18.48254734
C          18.06931810       14.64324024       19.18675843
C          17.88266004       13.48477683       19.94359895
C          17.43217986       12.23687585       19.27971793
C          17.29864077       12.23592162       17.92096731
C          16.10892255       11.59196128       17.36798875
C          15.67014827       12.38025316       16.26756427
C          14.31150475       12.52268609       16.00110532
C          13.76386743       13.75118224       15.59862119
C          12.83038549       16.34631583       16.39618921
C          11.99598361       15.15171718       16.55702207
C          12.45921659       13.82381410       16.12003588
C          12.17027769       12.58312512       16.90180801
C          13.32285114       11.71164158       16.77958110
C          13.79991918       10.99813357       17.91109394
C          15.25885198       10.94414746       18.19461871
C          15.39218069       10.93577800       19.63166095
C          16.51474622       11.51467346       20.22568766
C          17.61276137       15.97249864       19.64470466
C          17.20037832       13.59118942       21.21802438
C          16.04297886       14.75099414       15.67244228
176
MD Time 1260.91
C          10.83208288       13.17134835       10.09308782
C           9.02039825       11.57761509       10.10353540
C           9.94834156       10.47957445       10.08621003
C          11.31076557       10.80930882       10.12783854
C          11.75500029       12.11622204       10.13411677
C          13.11297174       12.73527977       10.06618160
N          12.97941604       14.12941019        9.98420798
N          14.24278263       11.97410889        9.87706855
N          17.66762737       15.34164041        8.99012093
C          15.37629531       12.56765217        9.50382345
C          16.62160233       11.89983448        9.15941798
C          16.98105592       10.53413993        9.28575660
C          18.31497120       10.15188896        9.17331021
C          19.24380464       11.16177724        8.86305809
C          18.90376590       12.50126908        8.68683684
C          17.56562505       12.90009278        8.94302968
C          16.98227308       14.21844822        9.15988643
N          15.66380760       13.94490719        9.46266967
C          11.64143308       14.39448973       10.08894301
C           9.45464799       12.89927085       10.12223388
C          17.09921664       16.59428169        9.08101282
C          19.24209323       18.04617356        8.63316191
C          13.43918388       18.42011037       10.11573681
C          12.11011807       19.09165191       10.21361376
C          11.82601318       20.44379023       10.28984714
C          10.46344166       20.87703987       10.26056930
C           9.45430922       19.94690322       10.21612129
C           9.78992000       18.51709225       10.19277112
C          11.10768292       18.06575258       10.24542895
C          11.72620110       16.79279081       10.11197916
N          13.10973795       17.00403801       10.04290460
N          11.01983734       15.63406899       10.12618874
C          17.91313484       17.82338079        9.01480265
C          19.76856789       19.35333598        8.65020603
C          18.88584956       20.40427739        9.08992703
C          17.54847117       20.13303555        9.44980124
C          17.05235457       18.86608826        9.43845930
C          15.75418604       18.28907126        9.73652109
N          15.82958602       16.90906246        9.46769417
N          14.64069772       18.95437540       10.08359946
H          13.88661217       16.33146704        9.91027481
H          14.89275939       14.66560145        9.60544789
H          10.28723137       21.96740479       10.26242058
H          12.65060122       21.15561709       10.46975700
H          16.92798793       20.99723181        9.62094713
H          19.24557347       21.44290283        9.14459715
H          20.81142192       19.64170319        8.64471628
H          19.88923988       17.21633832        8.28155700
H          19.72054488       13.16787785        8.51651237
H          20.33155075       10.92973954        8.76630730
H          18.57741600        9.09991671        9.36294506
H          16.24175004        9.77181334        9.47773839
H          12.08847019       10.02732628       10.23278525
H           9.59441951        9.48036897        9.91465812
H           7.95767993       11.41591724       10.13488786
H           8.76232434       13.80491557       10.06690668
H           9.03932244       17.70476933       10.24290869
H           8.41667762       20.16546385       10.20181749
C          10.20979754       11.71076576       13.18002191
C           8.54301015        9.95459385       13.33543520
C           9.52240534        8.93763610       13.44837199
C          10.87215061        9.32336227       13.48549471
C          11.26711649       10.69717026       13.32819536
C          12.55602712       11.46768998       13.28061160
N          12.33558306       12.82279302       13.13862480
N          13.78314454       10.87967214       13.24289133
N          17.27384419       14.19765296       12.19974965
C          14.90609720       11.54870644       12.94143950
C          16.17705780       10.86801498       12.95135762
C          16.57676055        9.55706935       13.16240731
C          17.93935520        9.14764212       13.05051556
C          18.95210904       10.08338825       12.82871605
C          18.58944694       11.38874257       12.43879900
C          17.21452711       11.79965228       12.54750369
C          16.59462335       13.08745771       12.50537953
N          15.21485489       12.90523034       12.72414881
C          10.95150435       13.01548114       13.05620046
C           8.89175809       11.33645508       13.21563788
C          16.71113627       15.43412698       12.37611581
C          18.70890130       17.05053509       12.06804465
C          12.77616311       17.01150423       13.09532326
C          11.52023821       17.69896425       13.28544496
C          11.25860967       19.04523341       13.54263834
C           9.90249952       19.45512724       13.63527641
C           8.83926832       18.57104902       13.41736360
C           9.15214187       17.24940276       13.14423964
C          10.45914152       16.78225514       13.18907511
C          11.02591383       15.43989154       13.03005667
N          12.41136428       15.66441542       12.98453603
N          10.31859131       14.26568185       12.98981532
C          17.42835295       16.71886877       12.43710945
C          19.01936150       18.38813916       12.18549911
C          18.09496340       19.34175552       12.62139155
C          16.75857162       19.02826911       12.93669011
C          16.43970871       17.67512585       12.86266902
C          15.12513449       16.99816439       12.86062082
N          15.32636314       15.62899459       12.61684976
N          13.98978684       17.60722938       13.08133844
H          13.02176592       14.89442063       12.87286295
H          14.55013186       13.67209471       12.52786698
H           9.66765580       20.44993416       14.02153051
H          12.05328341       19.79259313       13.39075137
H          16.01177356       19.81398827       13.10857323
H          18.39994451       20.39500385       12.60371459
H          20.00656569       18.68295371       11.82148711
H          19.33917916       16.29813654       11.65738652
H          19.29037777       12.18448790       12.19761856
H          20.01214880        9.75875600       12.64809582
H          18.12516685        8.11173015       13.17041319
H          15.78587431        8.82561082       13.35271611
H          11.65348047        8.55785238       13.64199665
H           9.16562648        7.94035608       13.42456636
H           7.49063846        9.74245162       13.50949916
H           8.15104125       12.12230187       13.21013165
H           8.35394928       16.53017993       12.93586866
H           7.79077476       18.88599420       13.46499194
C          13.22802608       14.04126239       22.17992620
C          14.66400987       13.87031443       22.46334377
C          15.46627167       15.04677077       22.36642635
C          14.96062389       16.42636835       21.97504166
C          13.60610518       16.48136072       21.58972648
C          12.70892273       15.31508460       21.68153318
C          12.75451611       12.76771772       21.53193849
C          13.90907229       11.87422243       21.41279410
C          15.08398127       12.54525971       21.95366710
C          16.39462370       12.41386600       21.36315055
C          16.76204082       14.87434302       21.71457433
C          15.88431732       17.00733060       21.02234721
C          15.39363714       17.73260997       19.84184102
C          13.98094725       17.85383136       19.54277884
C          13.10292808       17.27358586       20.42062068
C          11.96760895       16.58661204       19.91354345
C          11.73385550       15.31673103       20.60187962
C          11.33546227       14.09680745       20.02315311
C          11.83407096       12.82838389       20.45622330
C          14.07238505       11.02674777       20.26764722
C          13.07917862       11.09821472       19.19474437
C          11.95391267       11.95391027       19.25914717
C          11.53717407       12.72520957       18.13359549
C          11.07267076       14.05046222       18.60007413
C          11.38625740       15.25591461       17.86264306
C          11.71803731       16.52503028       18.51450562
C          12.73572052       17.12868292       17.59103090
C          13.78157060       17.83219796       18.09755307
C          17.02828078       16.07524976       20.88133733
C          16.49329017       15.95155955       16.29463054
C          17.41196782       15.91255917       17.28526137
C          18.03046789       14.55401996       17.75253770
C          17.57757013       13.41331235       17.11681815
C          16.53140720       13.50563207       16.13900395
C          14.62822634       14.87095528       15.43556299
C          14.13220565       16.14960561       15.82281953
C          15.30602804       16.85261446       16.40739004
C          15.09804272       17.64787194       17.51962901
C          16.11216045       17.58556055       18.59928848
C          17.17793361       16.69341604       18.48300842
C          18.06939342       14.64340089       19.18640180
C          17.88196468       13.48544319       19.94395376
C          17.43568043       12.23676760       19.28089780
C          17.30033944       12.23416773       17.92129678
C          16.10714828       11.58806418       17.36696306
C          15.67212818       12.37785665       16.26469039
C          14.31354667       12.52202674       16.00161774
C          13.76657584       13.75366372       15.60014386
C          12.83340615       16.34828917       16.39934162
C          11.99324019       15.15126259       16.56112141
C          12.45639230       13.82333162       16.11771273
C          12.17212475       12.58552294       16.89951870
C          13.32227914       11.71485159       16.77611518
C          13.80297834       10.99687301       17.90903075
C          15.26172024       10.94642275       18.19519079
C          15.39387997       10.93478834       19.62895384
C          16.51483929       11.51528100       20.22515770
C          17.61355791       15.97307435       19.64858492
C          17.20152457       13.58887230       21.21371761
C          16.04206736       14.75271964       15.67315543
176
MD Time 1281.58
C          10.83309756       13.17170708       10.09295919
C           9.02545071       11.57423799       10.10084973
C           9.94764451       10.48238062       10.08286011
C          11.31361263       10.81078090       10.12914495
C          11.75350243       12.11842138       10.13369834
C          13.11151717       12.73259987       10.06601217
N          12.98028416       14.13279271        9.98270308
N          14.24034416       11.97820511        9.87742854
N          17.66787822       15.34260950        8.98519691
C          15.37723331       12.56674360        9.50124847
C          16.62005137       11.90083349        9.15923885
C          16.98282038       10.53444647        9.28374465
C          18.31393930       10.14872793        9.17305861
C          19.24379194       11.16011497        8.85780692
C          18.90610350       12.49838695        8.68696440
C          17.56229472       12.90196615        8.93606301
C          16.98302784       14.22127089        9.15574216
N          15.66517356       13.94560146        9.45945952
C          11.64025151       14.39238648       10.09052698
C           9.45632648       12.90216911       10.11630713
C          17.09854777       16.59514829        9.07744235
C          19.24617828       18.04623195        8.63391632
C          13.43880348       18.42114904       10.11812969
C          12.11054959       19.09496853       10.21321024
C          11.82577680       20.44590640       10.29120671
C          10.46469637       20.87602583       10.26558265
C           9.45851172       19.94416430       10.21651336
C           9.78736114       18.51824516       10.19388990
C          11.10702512       18.06917372       10.24371809
C          11.72454719       16.79069777       10.11206295
N          13.11072213       17.00315132       10.04295996
N          11.02213813       15.63203322       10.12211273
C          17.91265479       17.82686961        9.01517414
C          19.76982975       19.35213433        8.64662950
C          18.88898769       20.40234137        9.08721018
C          17.54653844       20.13328639        9.45020115
C          17.04916628       18.86619582        9.43945592
C          15.75120423       18.29101903        9.73591995
N          15.82898162       16.91275901        9.46608208
N          14.63946981       18.95404146       10.08627968
H          13.87897144       16.31981253        9.92051388
H          14.87918633       14.66363804        9.61692657
H          10.29794019       21.96509839       10.25681133
H          12.64634645       21.15374725       10.46899863
H          16.92134788       20.99615970        9.61670434
H          19.24372398       21.43936372        9.15060542
H          20.80984197       19.63536064        8.64854961
H          19.88959455       17.22657854        8.28921651
H          19.72995528       13.17461175        8.50432563
H          20.32119875       10.93738805        8.77248945
H          18.56052762        9.08838004        9.36546426
H          16.23598901        9.77996802        9.48081126
H          12.08747673       10.04172596       10.24739875
H           9.60062629        9.47436884        9.91189771
H           7.95755959       11.41131316       10.12761698
H           8.77795198       13.79152484       10.06407853
H           9.04209647       17.71290705       10.23544478
H           8.43011724       20.17185412       10.20155711
C          10.21042498       11.71234148       13.18270634
C           8.54321864        9.95679049       13.33528018
C           9.52363032        8.93979867       13.44274991
C          10.87271456        9.32647328       13.48496294
C          11.26543521       10.70273651       13.32663112
C          12.55613828       11.46644003       13.28117737
N          12.33473367       12.82209605       13.13253841
N          13.78288604       10.88071409       13.24596166
N          17.27144583       14.19577883       12.19802872
C          14.90503681       11.54551738       12.93957379
C          16.18069471       10.86811175       12.94932776
C          16.57212820        9.55432015       13.15955953
C          17.94186130        9.14966390       13.05579478
C          18.94998845       10.07946605       12.82907639
C          18.59079586       11.38876327       12.43637145
C          17.21597342       11.80041456       12.54728831
C          16.59336544       13.08822515       12.50730314
N          15.21446057       12.90665498       12.72405751
C          10.95315996       13.01665631       13.05617947
C           8.88757274       11.33739210       13.21299331
C          16.71459877       15.43728216       12.37794267
C          18.70927389       17.05201119       12.07083247
C          12.77719577       17.01013734       13.09695230
C          11.51825062       17.69680576       13.28718346
C          11.26219104       19.04469647       13.54201200
C           9.90476687       19.45654553       13.63713853
C           8.83731352       18.56839475       13.41755370
C           9.14944998       17.25065121       13.14677666
C          10.46137928       16.78114787       13.18502027
C          11.02830008       15.43777483       13.03221298
N          12.41069384       15.66630724       12.98518095
N          10.32264647       14.26460898       12.98906093
C          17.42512534       16.71849748       12.44088713
C          19.02208585       18.38904225       12.18952521
C          18.09630099       19.34294378       12.62123121
C          16.75574773       19.02811573       12.93717559
C          16.43834972       17.67548461       12.86519377
C          15.12798456       17.00034215       12.85857851
N          15.32428187       15.62573681       12.61781394
N          13.98789018       17.60276032       13.08372209
H          13.02469579       14.89667565       12.87363077
H          14.55083846       13.67002274       12.51382462
H           9.66183105       20.45321852       14.00991305
H          12.04328281       19.78958369       13.39980058
H          16.01260049       19.82070867       13.09909159
H          18.39095343       20.39835573       12.61045162
H          20.01351437       18.68275228       11.82356392
H          19.35135210       16.29598862       11.65319957
H          19.30729031       12.17445889       12.19507941
H          20.00513285        9.76218356       12.65412601
H          18.12226644        8.10536941       13.16492029
H          15.78532434        8.82494542       13.35465779
H          11.64644024        8.55700172       13.63754395
H           9.16662558        7.93279060       13.42724321
H           7.48436145        9.74206717       13.50443601
H           8.15454020       12.12875581       13.21425080
H           8.35556379       16.52859276       12.92866577
H           7.79376193       18.89065412       13.47204346
C          13.23000824       14.04306860       22.18482785
C          14.66200309       13.87118270       22.46527201
C          15.45924443       15.04841414       22.36599010
C          14.95931327       16.42203841       21.97865310
C          13.60340879       16.47815530       21.58914484
C          12.70989204       15.31557896       21.68331935
C          12.75443964       12.76934408       21.53363188
C          13.91254002       11.86938543       21.41076594
C          15.07972525       12.54810893       21.95400441
C          16.39415338       12.41071798       21.36146454
C          16.76143311       14.87811601       21.71534356
C          15.88556540       17.00252894       21.01856317
C          15.39491282       17.73008891       19.84217266
C          13.98321973       17.85354135       19.54486531
C          13.10261970       17.27410564       20.41859153
C          11.96337442       16.58737535       19.91474952
C          11.73566974       15.31818414       20.60319982
C          11.33809953       14.09734230       20.02824495
C          11.83151601       12.82894085       20.46273318
C          14.07358866       11.02759093       20.26707805
C          13.07983546       11.09676041       19.19489245
C          11.94897275       11.95226254       19.25774494
C          11.53415663       12.72238481       18.12839816
C          11.07616412       14.05089661       18.59904644
C          11.38186909       15.25590445       17.86608154
C          11.71686552       16.52201374       18.51332066
C          12.73556698       17.12965035       17.59313906
C          13.78273088       17.83385675       18.10293180
C          17.02644342       16.07694040       20.88127061
C          16.49081063       15.95314320       16.29387122
C          17.41285007       15.91592583       17.28733763
C          18.03307229       14.55193144       17.75916606
C          17.57931223       13.41709466       17.12022801
C          16.53426008       13.50916107       16.13889703
C          14.63461788       14.87376237       15.43531375
C          14.12646871       16.15017451       15.82125515
C          15.30824456       16.85244378       16.41054658
C          15.10010947       17.64871164       17.52409938
C          16.11467613       17.58444628       18.60091825
C          17.17680300       16.69195339       18.48350507
C          18.06963860       14.64357071       19.18606269
C          17.88121913       13.48606936       19.94426082
C          17.43933382       12.23671615       19.28252125
C          17.30196670       12.23228165       17.92144190
C          16.10585715       11.58424420       17.36585886
C          15.67393447       12.37545575       16.26164203
C          14.31561325       12.52084763       16.00216299
C          13.76944330       13.75626447       15.60146276
C          12.83667056       16.34989914       16.40226405
C          11.99064268       15.15051271       16.56514639
C          12.45321015       13.82330587       16.11563542
C          12.17396413       12.58814194       16.89714741
C          13.32196248       11.71818083       16.77274124
C          13.80596868       10.99570611       17.90692620
C          15.26394838       10.94838939       18.19588606
C          15.39555427       10.93374522       19.62648460
C          16.51515122       11.51619320       20.22436206
C          17.61462566       15.97333114       19.65222755
C          17.20262532       13.58682572       21.20957718
C          16.04115788       14.75410802       15.67387566
176
MD Time 1302.25
C          10.83407988       13.17207245       10.09287917
C           9.03051334       11.57079412       10.09815629
C           9.94693538       10.48553578       10.07944769
C          11.31658205       10.81193480       10.13051597
C          11.75218224       12.12071455       10.13325974
C          13.10995786       12.72977689       10.06573610
N          12.98128244       14.13605365        9.98128351
N          14.23773211       11.98244154        9.87775071
N          17.66800812       15.34382590        8.98024200
C          15.37829228       12.56587976        9.49871778
C          16.61837634       11.90163038        9.15923745
C          16.98450229       10.53481098        9.28169077
C          18.31283431       10.14559241        9.17280857
C          19.24404333       11.15835836        8.85253171
C          18.90829760       12.49554694        8.68721801
C          17.55945600       12.90382328        8.92904286
C          16.98385390       14.22384905        9.15142986
N          15.66612446       13.94655642        9.45630799
C          11.63874769       14.39063160       10.09198367
C           9.45800610       12.90534573       10.11031958
C          17.09812114       16.59595030        9.07398494
C          19.25035989       18.04625076        8.63459430
C          13.43804000       18.42192049       10.12057248
C          12.11131331       19.09807369       10.21288810
C          11.82544802       20.44814438       10.29262658
C          10.46632350       20.87521315       10.27059329
C           9.46287128       19.94074390       10.21686984
C           9.78467194       18.51948221       10.19512274
C          11.10634638       18.07308944       10.24181461
C          11.72294918       16.78831997       10.11216641
N          13.11174769       17.00246172       10.04300473
N          11.02465349       15.62992720       10.11802479
C          17.91222352       17.83020493        9.01550595
C          19.77074496       19.35116025        8.64343155
C          18.89213934       20.40025386        9.08443733
C          17.54478701       20.13396098        9.45050258
C          17.04605378       18.86620033        9.44042136
C          15.74832758       18.29271463        9.73519024
N          15.82817106       16.91639162        9.46454694
N          14.63828164       18.95382192       10.08887644
H          13.87030490       16.30848288        9.93086571
H          14.86863806       14.65882645        9.62808912
H          10.30795670       21.96204244       10.25153888
H          12.64178219       21.15187468       10.46725440
H          16.91349692       20.99584032        9.61371009
H          19.24198233       21.43545078        9.15643389
H          20.80990531       19.62811498        8.65052661
H          19.88934127       17.23649483        8.29731964
H          19.73923996       13.18288334        8.49187701
H          20.31014216       10.94441805        8.77857283
H          18.54427002        9.07807408        9.36748871
H          16.22899055        9.78778240        9.48440630
H          12.08604587       10.05570042       10.26121429
H           9.60662839        9.46723870        9.91002025
H           7.95635126       11.40586530       10.12003893
H           8.79407374       13.77603137       10.06181577
H           9.04401334       17.72216394       10.22754781
H           8.44012831       20.17974007       10.20119369
C          10.21163057       11.71387946       13.18537171
C           8.54341751        9.95918234       13.33520153
C           9.52478804        8.94236718       13.43707269
C          10.87354613        9.32968928       13.48437578
C          11.26351377       10.70832688       13.32511872
C          12.55619830       11.46502788       13.28168240
N          12.33375043       12.82140151       13.12642273
N          13.78252684       10.88185183       13.24897057
N          17.26902327       14.19417129       12.19644934
C          14.90404616       11.54227703       12.93790403
C          16.18470553       10.86830127       12.94710780
C          16.56755446        9.55138301       13.15669417
C          17.94395130        9.15179910       13.06118148
C          18.94802772       10.07568569       12.82906357
C          18.59187412       11.38895137       12.43416153
C          17.21752366       11.80090480       12.54724371
C          16.59212860       13.08899905       12.50897747
N          15.21399154       12.90809457       12.72388817
C          10.95464669       13.01802363       13.05623784
C           8.88332174       11.33816906       13.21042530
C          16.71778777       15.44031958       12.37977972
C          18.70952491       17.05341028       12.07367345
C          12.77822784       17.00878790       13.09864190
C          11.51637158       17.69482930       13.28897116
C          11.26555411       19.04429025       13.54122056
C           9.90713626       19.45804260       13.63913593
C           8.83545903       18.56579265       13.41778205
C           9.14658034       17.25155587       13.14930376
C          10.46351624       16.77989179       13.18090167
C          11.03053251       15.43562831       13.03437932
N          12.40994603       15.66820266       12.98581777
N          10.32695203       14.26346274       12.98838679
C          17.42157437       16.71794646       12.44472436
C          19.02507817       18.39009878       12.19346831
C          18.09759885       19.34432917       12.62106647
C          16.75304240       19.02797337       12.93760277
C          16.43694635       17.67583678       12.86753244
C          15.13126349       17.00219499       12.85655459
N          15.32230203       15.62252915       12.61872351
N          13.98565428       17.59836755       13.08614396
H          13.03026745       14.89656912       12.87424457
H          14.55235731       13.66726870       12.50102037
H           9.65642771       20.45730833       13.99736306
H          12.03393122       19.78665697       13.41035636
H          16.01362291       19.82667282       13.09001256
H          18.38212328       20.40155794       12.61732882
H          20.02019616       18.68340266       11.82621460
H          19.36477349       16.29321019       11.64863158
H          19.32474914       12.16412666       12.19222510
H          19.99663922        9.76589440       12.66122910
H          18.12055148        8.09668469       13.16005173
H          15.78486732        8.82366026       13.35687259
H          11.63928391        8.55671243       13.63275243
H           9.16798333        7.92287094       13.43071993
H           7.47794313        9.74097861       13.49851352
H           8.15648368       12.13562153       13.21801816
H           8.35712655       16.52691031       12.92171050
H           7.79695708       18.89551677       13.47898720
C          13.23180960       14.04489265       22.18943116
C          14.65985847       13.87224277       22.46712842
C          15.45243498       15.05000738       22.36543030
C          14.95778821       16.41738081       21.98209066
C          13.60051532       16.47499446       21.58852447
C          12.71110659       15.31565211       21.68537803
C          12.75446463       12.77111558       21.53527506
C          13.91605086       11.86453072       21.40863756
C          15.07572025       12.55111221       21.95438390
C          16.39316938       12.40750447       21.36003799
C          16.76092038       14.88175366       21.71593967
C          15.88679845       16.99784908       21.01459406
C          15.39648167       17.72738875       19.84289004
C          13.98566860       17.85341011       19.54700002
C          13.10230458       17.27443114       20.41699159
C          11.95879393       16.58780856       19.91548390
C          11.73760568       15.31974545       20.60483713
C          11.34056387       14.09808131       20.03322462
C          11.82906715       12.82937085       20.46930789
C          14.07477015       11.02858288       20.26650928
C          13.08051500       11.09531445       19.19483967
C          11.94423523       11.95059785       19.25670202
C          11.53096389       12.71974159       18.12313252
C          11.07983346       14.05150905       18.59793391
C          11.37717557       15.25560832       17.86964282
C          11.71598732       16.51900924       18.51201250
C          12.73488422       17.13063946       17.59531229
C          13.78421032       17.83559721       18.10844346
C          17.02430301       16.07869879       20.88146403
C          16.48803989       15.95500386       16.29295955
C          17.41412985       15.91893554       17.28979826
C          18.03542133       14.55052591       17.76558846
C          17.58105438       13.42073637       17.12374926
C          16.53717211       13.51287181       16.13848020
C          14.64061224       14.87631605       15.43494447
C          14.12091748       16.15102714       15.81990110
C          15.31032886       16.85220408       16.41353066
C          15.10242681       17.64960818       17.52857635
C          16.11698533       17.58339059       18.60244002
C          17.17579189       16.69062535       18.48405803
C          18.07005633       14.64375563       19.18579137
C          17.88043817       13.48664997       19.94450686
C          17.44312407       12.23671167       19.28455779
C          17.30351833       12.23027696       17.92140630
C          16.10510509       11.58054631       17.36465331
C          15.67559432       12.37307326       16.25843319
C          14.31768626       12.51919111       16.00272085
C          13.77246356       13.75897385       15.60258026
C          12.84012273       16.35112003       16.40496223
C          11.98821010       15.14948058       16.56907466
C          12.44970937       13.82375643       16.11380027
C          12.17578490       12.59096562       16.89469348
C          13.32192378       11.72159146       16.76949018
C          13.80885704       10.99465143       17.90478289
C          15.26550350       10.95002334       18.19669937
C          15.39720283       10.93265592       19.62428019
C          16.51567930       11.51739361       20.22329639
C          17.61597170       15.97326933       19.65558603
C          17.20364606       13.58508757       21.20565354
C          16.04028769       14.75516403       15.67460623
176
MD Time 1322.92
C          10.83501128       13.17245284       10.09284037
C           9.03550916       11.56734545       10.09544582
C           9.94626141       10.48894752       10.07597217
C          11.31960593       10.81283168       10.13194759
C          11.75105804       12.12306951       10.13280349
C          13.10830241       12.72686254       10.06535227
N          12.98239328       14.13916712        9.97995480
N          14.23497277       11.98679551        9.87802908
N          17.66801945       15.34530382        8.97525728
C          15.37944669       12.56508226        9.49624375
C          16.61660881       11.90222411        9.15939408
C          16.98606484       10.53523767        9.27960628
C          18.31165884       10.14247102        9.17255448
C          19.24447958       11.15650498        8.84726394
C          18.91037582       12.49283613        8.68756202
C          17.55714085       12.90564354        8.92197979
C          16.98473206       14.22616360        9.14695037
N          15.66662861       13.94777629        9.45323090
C          11.63696159       14.38924276       10.09330029
C           9.45976290       12.90864994       10.10429042
C          17.09793325       16.59671011        9.07064880
C          19.25454673       18.04628117        8.63522706
C          13.43690159       18.42241379       10.12305890
C          12.11239708       19.10094014       10.21265012
C          11.82501790       20.45047272       10.29410390
C          10.46833223       20.87458480       10.27558660
C           9.46738365       19.93668425       10.21719684
C           9.78191896       18.52082918       10.19645693
C          11.10565383       18.07745596       10.23972271
C          11.72142099       16.78570867       10.11228456
N          13.11278201       17.00196840       10.04304737
N          11.02735926       15.62776033       10.11393553
C          17.91186276       17.83336302        9.01578777
C          19.77131350       19.35041557        8.64061916
C          18.89525017       20.39801415        9.08162704
C          17.54323021       20.13505447        9.45069548
C          17.04304180       18.86613008        9.44134940
C          15.74557365       18.29414455        9.73433093
N          15.82715806       16.91994153        9.46308394
N          14.63712806       18.95372665       10.09139111
H          13.86076025       16.29759483        9.94126698
H          14.86148284       14.65102442        9.63872451
H          10.31708511       21.95848454       10.24666847
H          12.63728684       21.15034974       10.46461452
H          16.90465517       20.99617832        9.61193714
H          19.24049476       21.43136790        9.16202796
H          20.81182362       19.62009411        8.65062956
H          19.88902568       17.24528288        8.30554874
H          19.74751737       13.19185238        8.47945523
H          20.29944738       10.95051100        8.78440943
H          18.52878489        9.06932523        9.36894904
H          16.22095529        9.79527403        9.48847645
H          12.08473656       10.06856168       10.27425141
H           9.61253052        9.45960550        9.90911472
H           7.95459153       11.39969260       10.11215918
H           8.80953516       13.75982480       10.06001737
H           9.04458111       17.73198038       10.21929462
H           8.44637692       20.18910831       10.20071067
C          10.21335692       11.71538418       13.18800539
C           8.54355245        9.96174932       13.33519124
C           9.52585747        8.94526029       13.43135712
C          10.87461254        9.33302234       13.48372059
C          11.26137152       10.71389651       13.32367240
C          12.55619448       11.46348458       13.28211925
N          12.33265344       12.82070823       13.12028690
N          13.78207257       10.88307104       13.25191314
N          17.26659359       14.19285567       12.19501452
C          14.90315062       11.53901709       12.93642882
C          16.18904284       10.86856262       12.94470760
C          16.56309913        9.54829237       13.15381648
C          17.94557473        9.15393933       13.06667088
C          18.94620418       10.07211455       12.82868361
C          18.59270519       11.38929292       12.43217476
C          17.21918869       11.80113677       12.54736245
C          16.59091452       13.08977286       12.51039604
N          15.21345122       12.90951861       12.72364217
C          10.95596227       13.01956465       13.05637143
C           8.87906186       11.33881129       13.20794426
C          16.72066269       15.44318131       12.38162286
C          18.70969031       17.05466796       12.07653921
C          12.77922910       17.00746066       13.10039460
C          11.51463383       17.69304756       13.29080037
C          11.26860232       19.04397338       13.54028912
C           9.90958772       19.45957483       13.64124229
C           8.83374729       18.56329689       13.41806986
C           9.14357405       17.25207238       13.15180006
C          10.46549639       16.77849961       13.17673734
C          11.03260425       15.43347352       13.03654310
N          12.40917260       15.67003805       12.98644022
N          10.33149251       14.26225039       12.98779524
C          17.41777691       16.71723778       12.44860244
C          19.02834726       18.39131431       12.19731960
C          18.09881932       19.34589883       12.62091414
C          16.75049165       19.02786016       12.93795883
C          16.43549853       17.67618783       12.86968240
C          15.13489784       17.00369822       12.85456544
N          15.32045076       15.61940584       12.61957556
N          13.98312615       17.59406473       13.08859745
H          13.03803583       14.89459741       12.87478669
H          14.55454912       13.66395741       12.48949759
H           9.65152775       20.46222652       13.98398379
H          12.02606739       19.78443244       13.42222266
H          16.01481185       19.83178530       13.08137545
H          18.37359460       20.40465004       12.62427166
H          20.02634470       18.68481908       11.82954082
H          19.37861648       16.29056594       11.64417523
H          19.34237495       12.15339803       12.18911687
H          19.98731019        9.76962531       12.66926587
H          18.11993302        8.08650139       13.15579870
H          15.78431065        8.82162915       13.35935090
H          11.63230155        8.55687680       13.62768761
H           9.16999658        7.91164477       13.43493551
H           7.47188695        9.73928101       13.49171206
H           8.15682669       12.14281598       13.22140416
H           8.35860741       16.52517797       12.91507700
H           7.80015284       18.90055210       13.48576632
C          13.23340402       14.04671453       22.19372027
C          14.65757765       13.87348643       22.46891474
C          15.44590109       15.05154009       22.36474576
C          14.95603863       16.41243536       21.98531675
C          13.59745931       16.47189922       21.58787205
C          12.71255214       15.31531088       21.68770482
C          12.75461067       12.77300503       21.53687405
C          13.91956217       11.85971899       21.40644884
C          15.07201308       12.55423520       21.95478534
C          16.39166813       12.40426388       21.35888964
C          16.76049580       14.88521102       21.71636141
C          15.88797311       16.99330681       21.01048143
C          15.39834853       17.72451147       19.84399973
C          13.98827887       17.85343675       19.54918698
C          13.10196551       17.27454652       20.41583414
C          11.95389871       16.58792895       19.91574221
C          11.73965026       15.32139793       20.60679199
C          11.34284157       14.09902063       20.03804892
C          11.82672570       12.82966411       20.47590516
C          14.07594143       11.02970258       20.26591610
C          13.08119453       11.09389539       19.19457218
C          11.93972854       11.94891158       19.25602137
C          11.52760139       12.71729440       18.11784909
C          11.08366342       14.05227248       18.59678364
C          11.37220160       15.25503119       17.87328756
C          11.71540374       16.51604366       18.51061324
C          12.73369966       17.13165931       17.59756031
C          13.78598902       17.83740195       18.11405330
C          17.02187870       16.08049881       20.88192364
C          16.48503521       15.95714115       16.29194577
C          17.41577885       15.92157300       17.29259933
C          18.03751170       14.54983406       17.77175920
C          17.58277420       13.42419332       17.12736448
C          16.54012884       13.51671935       16.13777015
C          14.64612313       14.87859664       15.43445157
C          14.11563488       16.15216742       15.81876305
C          15.31224375       16.85191211       16.41634158
C          15.10498685       17.65055094       17.53303581
C          16.11906976       17.58240666       18.60385622
C          17.17492375       16.68942530       18.48468766
C          18.07064902       14.64396170       19.18563762
C          17.87963653       13.48718085       19.94468082
C          17.44703499       12.23674364       19.28697053
C          17.30499321       12.22816836       17.92119968
C          16.10493596       11.57700811       17.36332747
C          15.67713835       12.37072976       16.25507930
C          14.31974655       12.51710438       16.00326952
C          13.77562606       13.76177755       15.60350119
C          12.84370459       16.35193174       16.40744790
C          11.98595810       15.14818093       16.57288740
C          12.44593379       13.82469765       16.11220011
C          12.17757643       12.59397738       16.89215784
C          13.32218167       11.72504784       16.76639020
C          13.81161171       10.99372557       17.90260424
C          15.26636495       10.95130706       18.19762071
C          15.39882543       10.93152757       19.62236380
C          16.51641779       11.51886440       20.22195933
C          17.61759881       15.97289311       19.65862381
C          17.20455322       13.58368854       21.20199380
C          16.03949273       14.75589914       15.67535022
176
MD Time 1343.59
C          10.83587356       13.17285753       10.09283506
C           9.04035847       11.56395550       10.09270788
C           9.94567144       10.49251702       10.07243309
C          11.32261807       10.81353621       10.13343376
C          11.75014508       12.12545052       10.13233205
C          13.10655821       12.72390965       10.06485991
N          12.98359619       14.14211003        9.97872226
N          14.23209489       11.99124390        9.87825717
N          17.66791483       15.34705333        8.97024283
C          15.38066801       12.56437172        9.49383887
C          16.61478281       11.90261862        9.15968799
C          16.98746617       10.53572451        9.27750433
C          18.31041519       10.13935888        9.17228891
C          19.24501489       11.15455410        8.84203242
C          18.91236326       12.49033298        8.68796041
C          17.55537037       12.90740594        8.91488511
C          16.98564329       14.22820036        9.14230433
N          15.66667476       13.94924830        9.45023896
C          11.63493788       14.38823104       10.09446498
C           9.46168683       12.91191076       10.09823838
C          17.09797700       16.59745091        9.06744167
C          19.25864731       18.04637493        8.63584630
C          13.43540377       18.42262111       10.12558278
C          12.11378472       19.10354637       10.21249894
C          11.82448076       20.45285838       10.29563546
C          10.47072472       20.87411619       10.28054963
C           9.47201252       19.93204540       10.21750047
C           9.77916600       18.52230925       10.19787993
C          11.10495584       18.08222372       10.23744716
C          11.71997453       16.78291990       10.11241236
N          13.11379013       17.00167078       10.04309633
N          11.03023037       15.62554324       10.10985442
C          17.91159328       17.83632272        9.01601016
C          19.77155239       19.34989935        8.63819453
C          18.89826916       20.39562694        9.07879757
C          17.54187112       20.13656070        9.45077281
C          17.04015566       18.86601696        9.44223383
C          15.74295637       18.29529789        9.73334190
N          15.82594830       16.92339053        9.46168724
N          14.63600146       18.95376317       10.09382560
H          13.85053070       16.28721784        9.95165323
H          14.85786073       14.64032157        9.64866790
H          10.32514275       21.95470775       10.24225621
H          12.63324258       21.14952349       10.46117317
H          16.89510629       20.99700877        9.61133459
H          19.23940290       21.42731256        9.16733759
H          20.81563025       19.61140024        8.64885797
H          19.88920620       17.25215278        8.31359101
H          19.75401088       13.20074176        8.46734282
H          20.29022332       10.95536153        8.78986862
H          18.51421847        9.06235899        9.36979629
H          16.21215347        9.80251822        9.49295436
H          12.08410468       10.07964515       10.28655684
H           9.61843775        9.45212740        9.90926328
H           7.95284617       11.39292692       10.10398848
H           8.82302605       13.74451522       10.05857332
H           9.04333604       17.74179913       10.21075189
H           8.44897638       20.19982998       10.20009766
C          10.21553806       11.71686199       13.19059550
C           8.54357236        9.96446962       13.33524014
C           9.52682175        8.94839256       13.42562090
C          10.87587653        9.33648582       13.48298461
C          11.25903193       10.71940179       13.32230574
C          12.55611410       11.46184258       13.28248046
N          12.33146345       12.82001466       13.11413879
N          13.78152975       10.88435719       13.25478536
N          17.26417323       14.19185346       12.19372653
C          14.90237509       11.53576802       12.93514568
C          16.19365665       10.86887177       12.94213819
C          16.55881533        9.54508031       13.15093188
C          17.94669022        9.15596898       13.07225800
C          18.94448193       10.06881794       12.82794590
C          18.59331848       11.38977308       12.43041421
C          17.22097718       11.80112950       12.54763587
C          16.58972488       13.09053949       12.51155390
N          15.21284889       12.91089234       12.72332297
C          10.95710789       13.02125864       13.05657609
C           8.87484359       11.33935408       13.20555965
C          16.72318615       15.44581160       12.38346817
C          18.70980431       17.05572953       12.07940448
C          12.78016880       17.00615912       13.10221325
C          11.51306540       17.69147044       13.29266354
C          11.27124905       19.04370669       13.53924168
C           9.91210074       19.46110438       13.64343229
C           8.83221679       18.56095754       13.41843717
C           9.14047130       17.25216199       13.15424616
C          10.46726782       16.77698552       13.17254470
C          11.03451163       15.43133070       13.03869223
N          12.40843851       15.67173506       12.98704014
N          10.33625113       14.26098024       12.98728834
C          17.41381131       16.71639516       12.45250300
C          19.03189407       18.39269155       12.20107401
C          18.09992847       19.34763814       12.62078971
C          16.74813000       19.02779127       12.93823151
C          16.43400755       17.67654371       12.87164203
C          15.13880574       17.00483248       12.85262829
N          15.31875256       15.61639881       12.62036792
N          13.98035987       17.58986275       13.09107542
H          13.04735370       14.89147748       12.87537071
H          14.55720925       13.66027994       12.47926275
H           9.64721395       20.46794987       13.96986602
H          12.02045547       19.78348007       13.43522179
H          16.01611688       19.83598461       13.07322042
H          18.36550065       20.40768221       12.63121034
H          20.03175799       18.68692160       11.83361765
H          19.39209514       16.28875123       11.64029426
H          19.35977378       12.14218261       12.18582046
H          19.97789947        9.77309270       12.67807982
H          18.12029506        8.07576225       13.15215512
H          15.78349206        8.81876596       13.36207690
H          11.62579532        8.55736468       13.62241688
H           9.17295592        7.90020887       13.43980915
H           7.46665144        9.73707311       13.48402667
H           8.15562753       12.15016871       13.22438074
H           8.35996283       16.52342855       12.90883289
H           7.80315969       18.90572853       13.49232805
C          13.23476860       14.04851346       22.19768293
C          14.65516378       13.87490505       22.47063331
C          15.43969530       15.05300081       22.36393678
C          14.95405510       16.40724350       21.98829492
C          13.59427531       16.46888812       21.58719581
C          12.71421121       15.31456625       21.69029258
C          12.75489554       12.77498532       21.53843490
C          13.92303420       11.85500986       21.40424072
C          15.06864310       12.55744370       21.95518934
C          16.38965322       12.40103596       21.35803436
C          16.76015149       14.88844852       21.71660934
C          15.88904628       16.98891563       21.00626868
C          15.40051528       17.72146103       19.84550303
C          13.99103398       17.85361784       19.55143502
C          13.10158484       17.27443813       20.41512498
C          11.94872441       16.58775675       19.91552772
C          11.74178866       15.32312193       20.60906197
C          11.34492182       14.10015496       20.04268064
C          11.82449085       12.82981451       20.48248473
C          14.07711406       11.03092844       20.26527314
C          13.08185209       11.09252073       19.19407921
C          11.93547744       11.94720050       19.25570080
C          11.52407613       12.71505432       18.11259701
C          11.08763789       14.05315750       18.59564270
C          11.36697319       15.25418272       17.87697352
C          11.71511248       16.51314045       18.50915300
C          12.73204739       17.13272030       17.59989128
C          13.78804258       17.83925172       18.11972592
C          17.01919637       16.08231259       20.88264713
C          16.48185744       15.95955035       16.29088133
C          17.41776335       15.92382757       17.29569202
C          18.03934148       14.54987764       17.77763436
C          17.58445030       13.42742791       17.13105534
C          16.54311858       13.52065700       16.13678578
C          14.65107133       14.88058925       15.43383181
C          14.11069997       16.15359418       15.81784253
C          15.31395554       16.85158639       16.41898139
C          15.10777964       17.65152989       17.53745475
C          16.12091588       17.58150588       18.60517153
C          17.17422133       16.68834585       18.48541352
C          18.07141895       14.64419496       19.18564963
C          17.87882854       13.48765905       19.94477435
C          17.45105051       12.23680098       19.28971740
C          17.30639312       12.22597133       17.92083696
C          16.10538094       11.57365903       17.36186740
C          15.67859969       12.36844332       16.25159667
C          14.32177500       12.51463819       16.00378610
C          13.77891637       13.76465823       15.60423246
C          12.84735691       16.35231983       16.40973854
C          11.98389890       15.14662986       16.57656942
C          12.44193053       13.82613868       16.11082480
C          12.17932846       12.59716090       16.88954316
C          13.32275063       11.72851721       16.76346648
C          13.81420280       10.99294309       17.90039442
C          15.26652478       10.95222997       18.19863468
C          15.40042229       10.93036697       19.62075438
C          16.51735834       11.52058700       20.22035261
C          17.61950539       15.97221031       19.66131520
C          17.20531470       13.58265243       21.19864111
C          16.03880667       14.75633115       15.67611037
176
MD Time 1364.27
C          10.83664959       13.17329653       10.09285526
C           9.04498350       11.56068806       10.08993101
C           9.94521643       10.49614489       10.06883102
C          11.32555971       10.81411016       10.13496741
C          11.74945556       12.12781924       10.13184780
C          13.10473143       12.72097165       10.06425860
N          12.98486827       14.14486199        9.97759093
N          14.22912933       11.99576332        9.87842808
N          17.66769675       15.34908019        8.96519792
C          15.38192540       12.56376757        9.49151558
C          16.61293403       11.90282245        9.16009760
C          16.98866136       10.53626484        9.27539948
C          18.30910519       10.13625861        9.17200259
C          19.24556668       11.15250530        8.83686252
C          18.91427855       12.48810317        8.68837852
C          17.55415539       12.90908944        8.90777093
C          16.98656908       14.22995022        9.13749203
N          15.66627125       13.95094396        9.44733732
C          11.63272491       14.38760102       10.09546682
C           9.46387154       12.91495141       10.09218068
C          17.09824211       16.59819617        9.06437083
C          19.26257660       18.04657693        8.63648097
C          13.43356884       18.42253756       10.12813809
C          12.11545656       19.10587651       10.21243711
C          11.82383724       20.45526957       10.29721832
C          10.47349562       20.87377756       10.28547106
C           9.47669200       19.92690554       10.21778673
C           9.77646934       18.52393754       10.19937954
C          11.10426171       18.08733850       10.23499334
C          11.71861977       16.78001297       10.11254467
N          13.11473579       17.00156832       10.04315986
N          11.03324111       15.62328799       10.10578989
C          17.91143405       17.83906555        9.01616478
C          19.77149577       19.34960801        8.63615551
C          18.90114936       20.39310360        9.07596690
C          17.54070434       20.13847114        9.45073012
C          17.03742101       18.86589547        9.44306846
C          15.74048609       18.29616655        9.73222393
N          15.82454912       16.92672088        9.46035016
N          14.63489212       18.95393662       10.09618211
H          13.83984575       16.27737831        9.96196100
H          14.85769397       14.62702520        9.65780926
H          10.33196481       21.95100755       10.23834912
H          12.62999878       21.14971458       10.45701959
H          16.88517813       20.99812144        9.61183370
H          19.23883602       21.42345753        9.17231593
H          20.82117502       19.60210978        8.64522617
H          19.89038354       17.25641616        8.32117424
H          19.75810029       13.20888542        8.45579861
H          20.28350284       10.95870109        8.79484453
H          18.50071983        9.05728834        9.37000417
H          16.20290408        9.80962820        9.49775696
H          12.08463767       10.08837554       10.29818945
H           9.62443801        9.44543312        9.91053121
H           7.95165524       11.38570525       10.09554384
H           8.83320381       13.73177123       10.05737808
H           9.03989670       17.75112389       10.20197374
H           8.44845457       20.21165475       10.19935133
C          10.21810120       11.71832136       13.19313094
C           8.54343261        9.96732033       13.33533764
C           9.52767084        8.95168371       13.41988257
C          10.87729826        9.34009285       13.48215522
C          11.25652228       10.72480040       13.32103157
C          12.55594470       11.46013518       13.28275854
N          12.33020147       12.81931885       13.10798513
N          13.78090569       10.88569574       13.25758399
N          17.26177769       14.19118220       12.19258699
C          14.90174355       11.53255864       12.93405126
C          16.19849515       10.86920214       12.93941155
C          16.55474813        9.54177485       13.14804632
C          17.94726494        9.15777599       13.07793660
C          18.94281526       10.06585644       12.82686243
C          18.59374747       11.39037529       12.42888101
C          17.22289542       11.80090654       12.54805435
C          16.58856158       13.09129153       12.51244738
N          15.21219874       12.91217799       12.72293582
C          10.95808799       13.02308279       13.05684769
C           8.87071095       11.33984087       13.20328023
C          16.72532418       15.44815782       12.38531194
C          18.70989572       17.05655448       12.08224961
C          12.78101617       17.00488534       13.10410087
C          11.51168916       17.69010448       13.29455327
C          11.27342596       19.04346111       13.53809980
C           9.91465413       19.46260037       13.64568193
C           8.83090071       18.55881968       13.41890259
C           9.13731054       17.25179255       13.15662454
C          10.46878384       16.77536483       13.16834053
C          11.03625393       15.42921875       13.04081510
N          12.40781373       15.67321072       12.98760891
N          10.34120995       14.25966174       12.98686790
C          17.40975594       16.71544352       12.45640829
C          19.03571053       18.39422980       12.20473045
C          18.10089686       19.34953139       12.62070715
C          16.74599007       19.02777864       12.93840919
C          16.43247638       17.67691069       12.87341051
C          15.14289916       17.00558304       12.85076090
N          15.31722913       15.61353747       12.62109915
N          13.97741492       17.58577042       13.09357041
H          13.05747718       14.88801774       12.87612136
H          14.56008184       13.65647858       12.47028894
H           9.64357131       20.47440446       13.95508754
H          12.01769159       19.78422862       13.44920984
H          16.01746654       19.83924483       13.06558796
H          18.35796397       20.41070823       12.63808058
H          20.03631132       18.68964121       11.83848899
H          19.40451917       16.28833670       11.63738928
H          19.37655817       12.13041053       12.18240027
H          19.96921549        9.77601095       12.68750962
H          18.12151098        8.06541430       13.14912744
H          15.78229541        8.81503832       13.36502419
H          11.62005945        8.55804140       13.61700520
H           9.17711021        7.88960286       13.44524116
H           7.46261714        9.73445028       13.47547030
H           8.15303318       12.15743572       13.22691955
H           8.36113623       16.52168112       12.90303845
H           7.80582161       18.91100894       13.49862301
C          13.23588378       14.05026799       22.20131035
C          14.65262167       13.87648962       22.47228681
C          15.43386480       15.05437687       22.36300510
C          14.95182895       16.40184787       21.99099008
C          13.59099732       16.46597718       21.58650541
C          12.71606335       15.31343303       21.69313163
C          12.75533491       12.77702980       21.53996342
C          13.92643038       11.85046116       21.40205448
C          15.06564231       12.56070406       21.95557761
C          16.38713475       12.39786116       21.35748304
C          16.75987872       14.89143173       21.71668561
C          15.88997578       16.98468682       21.00200071
C          15.40298059       17.71824354       19.84739592
C          13.99391605       17.85394761       19.55375762
C          13.10114515       17.27409473       20.41486296
C          11.94331027       16.58731437       19.91485086
C          11.74400444       15.32489549       20.61164195
C          11.34679668       14.10147752       20.04708866
C          11.82236006       12.82981932       20.48900840
C          14.07829888       11.03223881       20.26455505
C          13.08246686       11.09120683       19.19335303
C          11.93150315       11.94546282       19.25573372
C          11.52039658       12.71302930       18.10742347
C          11.09174014       14.05413267       18.59455762
C          11.36151729       15.25307717       17.88065623
C          11.71510808       16.51031937       18.50765956
C          12.72996692       17.13383359       17.60231138
C          13.79034311       17.84112602       18.12542584
C          17.01628837       16.08411074       20.88362407
C          16.47856935       15.96222229       16.28981728
C          17.42004581       15.92569285       17.29902464
C          18.04090966       14.55066974       17.78317189
C          17.58606274       13.43040949       17.13480311
C          16.54613253       13.52463699       16.13554777
C          14.65538626       14.88228361       15.43308240
C          14.10618726       16.15530180       15.81713746
C          15.31543401       16.85124666       16.42145437
C          15.11079310       17.65253575       17.54181139
C          16.12251507       17.58069755       18.60639279
C          17.17370629       16.68737935       18.48625398
C          18.07236838       14.64446146       19.18587290
C          17.87802780       13.48808281       19.94478225
C          17.45515482       12.23687217       19.29275223
C          17.30772250       12.22370196       17.92033743
C          16.10645834       11.57051999       17.36026491
C          15.68001293       12.36622934       16.24800217
C          14.32375326       12.51184565       16.00424696
C          13.78231645       13.76759605       15.60478251
C          12.85102022       16.35227541       16.41185685
C          11.98204147       15.14484479       16.58010898
C          12.43774903       13.82808357       16.10966177
C          12.18103110       12.60050018       16.88685399
C          13.32364079       11.73197001       16.76074128
C          13.81660229       10.99231650       17.89815832
C          15.26598778       10.95278845       18.19972026
C          15.40199384       10.92918051       19.61946640
C          16.51849027       11.52254257       20.21848112
C          17.62168549       15.97123217       19.66364560
C          17.20590015       13.58199669       21.19563430
C          16.03825989       14.75648382       15.67688895
176
MD Time 1384.94
C          10.83732433       13.17378055       10.09289285
C           9.04931228       11.55760576       10.08710290
C           9.94494920       10.49973603       10.06516845
C          11.32838519       10.81460572       10.13654186
C          11.74899880       12.13013567       10.13135319
C          13.10282724       12.71810214       10.06354825
N          12.98618455       14.14740506        9.97656572
N          14.22610884       12.00032990        9.87853451
N          17.66736735       15.35138560        8.96012142
C          15.38318645       12.56328783        9.48928620
C          16.61109923       11.90284828        9.16060079
C          16.98960468       10.53684919        9.27330731
C          18.30773010       10.13318112        9.17168447
C          19.24606693       11.15035695        8.83177604
C          18.91613204       12.48619776        8.68878422
C          17.55349743       12.91067314        8.90065063
C          16.98749168       14.23140920        9.13251368
N          15.66544612       13.95281953        9.44452510
C          11.63037378       14.38735091       10.09629569
C           9.46639749       12.91761148       10.08613229
C          17.09871569       16.59896915        9.06144325
C          19.26626280       18.04691732        8.63715391
C          13.43142543       18.42216087       10.13071882
C          12.11738971       19.10792001       10.21246720
C          11.82309734       20.45767846       10.29885028
C          10.47663157       20.87353662       10.29034072
C           9.48133476       19.92135980       10.21806161
C           9.77387316       18.52571574       10.20094381
C          11.10358146       18.09274220       10.23236737
C          11.71736493       16.77704930       10.11267611
N          13.11558259       17.00166007       10.04324582
N          11.03636524       15.62100850       10.10174954
C          17.91140159       17.84157571        9.01624467
C          19.77119315       19.34953503        8.63449602
C          18.90384832       20.39046327        9.07315297
C          17.53971808       20.14077367        9.45056513
C          17.03486372       18.86580175        9.44384697
C          15.73816978       18.29674537        9.73097888
N          15.82296931       16.92991509        9.45906540
N          14.63378878       18.95424974       10.09846283
H          13.82895919       16.26806887        9.97212931
H          14.86068587       14.61165363        9.66610363
H          10.33740844       21.94766624       10.23498627
H          12.62783495       21.15117570       10.45223005
H          16.87522150       20.99928758        9.61335378
H          19.23890424       21.41993509        9.17691729
H          20.82814003       19.59227984        8.63976281
H          19.89292576       17.25757745        8.32810174
H          19.75934473       13.21575319        8.44504626
H          20.28010731       10.96032187        8.79925929
H          18.48843915        9.05410926        9.36956987
H          16.19355078        9.81673242        9.50279113
H          12.08668730       10.09433191       10.30920032
H           9.63059012        9.44007353        9.91295990
H           7.95148870       11.37816370       10.08684893
H           8.83888417       13.72307279       10.05634604
H           9.03401795       17.75957565       10.19300322
H           8.44565133       20.22422452       10.19847520
C          10.22096829       11.71977292       13.19560122
C           8.54309740        9.97027792       13.33547176
C           9.52840274        8.95506461       13.41416156
C          10.87883721        9.34385439       13.48122039
C          11.25387337       10.73005106       13.31986210
C          12.55567431       11.45839612       13.28294598
N          12.32888862       12.81861863       13.10183203
N          13.78020849       10.88707237       13.26030619
N          17.25942148       14.19085540       12.19159715
C          14.90127862       11.52941608       12.93314170
C          16.20350526       10.86952519       12.93654055
C          16.55093394        9.53839894       13.14516679
C          17.94727460        9.15926013       13.08369818
C          18.94115415       10.06328315       12.82544695
C          18.59402792       11.39108037       12.42757488
C          17.22494699       11.80049526       12.54860746
C          16.58742689       13.09202129       12.51307386
N          15.21151849       12.91333646       12.72248732
C          10.95891004       13.02501220       13.05718211
C           8.86670229       11.34032049       13.20111437
C          16.72704621       15.45017118       12.38715062
C          18.70998585       17.05711857       12.08506169
C          12.78174092       17.00363983       13.10606045
C          11.51052269       17.68895255       13.29646210
C          11.27509015       19.04322499       13.53688204
C           9.91722575       19.46403935       13.64796853
C           8.82982616       18.55692286       13.41948304
C           9.13412807       17.25093938       13.15891958
C          10.47000375       16.77365369       13.16414119
C          11.03783321       15.42715524       13.04290045
N          12.40736554       15.67438644       12.98813877
N          10.34634957       14.25830559       12.98653561
C          17.40568802       16.71440851       12.46030119
C          19.03977872       18.39592464       12.20829166
C          18.10170010       19.35156227       12.62067875
C          16.74410238       19.02783086       12.93848103
C          16.43090986       17.67729511       12.87498750
C          15.14708597       17.00593911       12.84898137
N          15.31589943       15.61084867       12.62176838
N          13.97435451       17.58179527       13.09607469
H          13.06766450       14.88500085       12.87715620
H          14.56287962       13.65282598       12.46252366
H           9.64068732       20.48146581       13.93971593
H          12.01812103       19.78688179       13.46408275
H          16.01877039       19.84157479       13.05851863
H          18.35109381       20.41377814       12.64482354
H          20.03996369       18.69292303       11.84416514
H          19.41532536       16.28973976       11.63577836
H          19.39236569       12.11804761       12.17891450
H          19.96204481        9.77811510       12.69740241
H          18.12345503        8.05631985       13.14673942
H          15.78066125        8.81047661       13.36815194
H          11.61535999        8.55878755       13.61151150
H           9.18264383        7.88073543       13.45111630
H           7.46006355        9.73149909       13.46607551
H           8.14925709       12.16432225       13.22899099
H           8.36205903       16.51994078       12.89774652
H           7.80802802       18.91634697       13.50460408
C          13.23673336       14.05195584       22.20459675
C          14.64995799       13.87823069       22.47387810
C          15.42845180       15.05565418       22.36195395
C          14.94935260       16.39629233       21.99336852
C          13.58765840       16.46318001       21.58581179
C          12.71808523       15.31192968       21.69620964
C          12.75594207       12.77911239       21.54146486
C          13.92971729       11.84612865       21.39993108
C          15.06303568       12.56398340       21.95593320
C          16.38412895       12.39478026       21.35724261
C          16.75966802       14.89413095       21.71659364
C          15.89072097       16.98062960       20.99772399
C          15.40573957       17.71486770       19.84966891
C          13.99690584       17.85441802       19.55617233
C          13.10062990       17.27350773       20.41504052
C          11.93769880       16.58662565       19.91372887
C          11.74627955       15.32669465       20.61452404
C          11.34846078       14.10297992       20.05124761
C          11.82032954       12.82967889       20.49543971
C          14.07950556       11.03361237       20.26373724
C          13.08301930       11.08996891       19.19238889
C          11.92782379       11.94369835       19.25610983
C          11.51657297       12.71122454       18.10237344
C          11.09595271       14.05516484       18.59357404
C          11.35586190       15.25173339       17.88428937
C          11.71538219       16.50759655       18.50615826
C          12.72750205       17.13501042       17.60482432
C          13.79286017       17.84300357       18.13111785
C          17.01319321       16.08586245       20.88483636
C          16.47523423       15.96514333       16.28880289
C          17.42258619       15.92716616       17.30254431
C          18.04221563       14.55221500       17.78833148
C          17.58759326       13.43311446       17.13858894
C          16.54916457       13.52861096       16.13407828
C          14.65900705       14.88367368       15.43220121
C          14.10216628       16.15728078       15.81664281
C          15.31665238       16.85091347       16.42376646
C          15.11401277       17.65356018       17.54608504
C          16.12386381       17.57998874       18.60752882
C          17.17339892       16.68651831       18.48722581
C          18.07349963       14.64476708       19.18634908
C          17.87724699       13.48845140       19.94470292
C          17.45933221       12.23694538       19.29602572
C          17.30898804       12.22137698       17.91972388
C          16.10817369       11.56760368       17.35851803
C          15.68141320       12.36410079       16.24431317
C          14.32566441       12.50878133       16.00462805
C          13.78580473       13.77056894       15.60516081
C          12.85463540       16.35179486       16.41382985
C          11.98039181       15.14284460       16.58349739
C          12.43344040       13.83053103       16.10869659
C          12.18267462       12.60397943       16.88409706
C          13.32485783       11.73537996       16.75823408
C          13.81878404       10.99185641       17.89590158
C          15.26477124       10.95298556       18.20085093
C          15.40354046       10.92797421       19.61850970
C          16.51980072       11.52471227       20.21635317
C          17.62412878       15.96997322       19.66561129
C          17.20628132       13.58173294       21.19300783
C          16.03787860       14.75638629       15.67768756
176
MD Time 1405.61
C          10.83788584       13.17432067       10.09293961
C           9.05328151       11.55476859       10.08421097
C           9.94492370       10.50320328       10.06145053
C          11.33106648       10.81506012       10.13815203
C          11.74878124       12.13235920       10.13085076
C          13.10085024       12.71535470       10.06272918
N          12.98751848       14.14972344        9.97565146
N          14.22306792       12.00491899        9.87856893
N          17.66692824       15.35396591        8.95501254
C          15.38441781       12.56294894        9.48716300
C          16.60931567       11.90271240        9.16117505
C          16.99025189       10.53746697        9.27124401
C          18.30629077       10.13014603        9.17132186
C          19.24647290       11.14810503        8.82679175
C          18.91792551       12.48465242        8.68914861
C          17.55338943       12.91213635        8.89353964
C          16.98839430       14.23257819        9.12736989
N          15.66424808       13.95481598        9.44179483
C          11.62793755       14.38747264       10.09694225
C           9.46931118       12.91977286       10.08010560
C          17.09938259       16.59979235        9.05866586
C          19.26965272       18.04740483        8.63787921
C          13.42900799       18.42149136       10.13331872
C          12.11955824       19.10967124       10.21259172
C          11.82228321       20.46006352       10.30053008
C          10.48011050       20.87336135       10.29514894
C           9.48584304       19.91551800       10.21833114
C           9.77140603       18.52762775       10.20256059
C          11.10292560       18.09837321       10.22957640
C          11.71621674       16.77409149       10.11280105
N          13.11629516       17.00194389       10.04336162
N          11.03957575       15.61872099       10.09774064
C          17.91150942       17.84383996        9.01624438
C          19.77070617       19.34967023        8.63320631
C          18.90632823       20.38773367        9.07037411
C          17.53889643       20.14345118        9.45027734
C          17.03250977       18.86577260        9.44456280
C          15.73601133       18.29703227        9.72960982
N          15.82121902       16.93295552        9.45782535
N          14.63267931       18.95470289       10.10066955
H          13.81813491       16.25926185        9.98210049
H          14.86631016       14.59493321        9.67358379
H          10.34135646       21.94492670       10.23220077
H          12.62692848       21.15406409       10.44686259
H          16.86558922       21.00028588        9.61580739
H          19.23969326       21.41682555        9.18109505
H          20.83607320       19.58195955        8.63251235
H          19.89700518       17.25541038        8.33427833
H          19.75748811       13.22096040        8.43526737
H          20.28052097       10.96009723        8.80306125
H          18.47752573        9.05270182        9.36851386
H          16.18443763        9.82395238        9.50795961
H          12.09041432       10.09729947       10.31961220
H           9.63691684        9.43648648        9.91656246
H           7.95271371       11.37043328       10.07793410
H           8.83926935       13.71942253       10.05542305
H           9.02563498       17.76693589       10.18387753
H           8.44157972       20.23710347       10.19747840
C          10.22405716       11.72122937       13.19799623
C           8.54254155        9.97331845       13.33562905
C           9.52902358        8.95848044       13.40847831
C          10.88045403        9.34777721       13.48016904
C          11.25111945       10.73511323       13.31880894
C          12.55529182       11.45665927       13.28303523
N          12.32754592       12.81791168       13.09568572
N          13.77944701       10.88847300       13.26294920
N          17.25711814       14.19088249       12.19075813
C          14.90100116       11.52636587       12.93241284
C          16.20863277       10.86981097       12.93353911
C          16.54740052        9.53497022       13.14230187
C          17.94670359        9.16033855       13.08953107
C          18.93945131       10.06114094       12.82371417
C          18.59419615       11.39186606       12.42649462
C          17.22713246       11.79992611       12.54928414
C          16.58632384       13.09272101       12.51343150
N          15.21082758       12.91432929       12.72198479
C          10.95958429       13.02701970       13.05757528
C           8.86285160       11.34084413       13.19907028
C          16.72832521       15.45180748       12.38898057
C          18.71008780       17.05741426       12.08783472
C          12.78231365       17.00242162       13.10809472
C          11.50957821       17.68801370       13.29838219
C          11.27622856       19.04300862       13.53560443
C           9.91979235       19.46540503       13.65027037
C           8.82901383       18.55530054       13.42019347
C           9.13095776       17.24958617       13.16111763
C          10.47089346       16.77186885       13.15996303
C          11.03925396       15.42515663       13.04493709
N          12.40715271       15.67519462       12.98862371
N          10.35164854       14.25692403       12.98629305
C          17.40168286       16.71331609       12.46416492
C          19.04407029       18.39776770       12.21176372
C          18.10231914       19.35371432       12.62071508
C          16.74249513       19.02795331       12.93843706
C          16.42931505       17.67770307       12.87637287
C          15.15127183       17.00589333       12.84730800
N          15.31477969       15.60835682       12.62237518
N          13.97124419       17.57794448       13.09858021
H          13.07725134       14.88309812       12.87857232
H          14.56530894       13.64959894       12.45590009
H           9.63865055       20.48896384       13.92381383
H          12.02178745       19.79136569       13.47976941
H          16.01992292       19.84301507       13.05205268
H          18.34498435       20.41693139       12.65138522
H          20.04275870       18.69672761       11.85062218
H          19.42409224       16.29321444       11.63568834
H          19.40687445       12.10510731       12.17541123
H          19.95706082        9.77918642       12.70762555
H          18.12600938        8.04919696       13.14503265
H          15.77859074        8.80517702       13.37140251
H          11.61191559        8.55951834       13.60598581
H           9.18966529        7.87434049       13.45730843
H           7.45915458        9.72829329       13.45589494
H           8.14455357       12.17051059       13.23056424
H           8.36265278       16.51819955       12.89300281
H           7.80972103       18.92168411       13.51022520
C          13.23730455       14.05355373       22.20753888
C          14.64718168       13.88011815       22.47540986
C          15.42349403       15.05681713       22.36078799
C          14.94662005       16.39062219       21.99539789
C          13.58429049       16.46050815       21.58512710
C          12.72025057       15.31007831       21.69951151
C          12.75672769       12.78120748       21.54294350
C          13.93286438       11.84206585       21.39791059
C          15.06084149       12.56724971       21.95624067
C          16.38065805       12.39183403       21.35731594
C          16.75950937       14.89652073       21.71633803
C          15.89124338       16.97675135       20.99348679
C          15.40878311       17.71134536       19.85230680
C          13.99998266       17.85501889       19.55869994
C          13.10002394       17.27267145       20.41564422
C          11.93193556       16.58571529       19.91218556
C          11.74859416       15.32849367       20.61769742
C          11.34991110       14.10465196       20.05513737
C          11.81839484       12.82939637       20.50174323
C          14.08074216       11.03502847       20.26279666
C          13.08349133       11.08882121       19.19118511
C          11.92445493       11.94190860       19.25681565
C          11.51261773       12.70964296       18.09748976
C          11.10025699       14.05621938       18.59273640
C          11.35003645       15.25017478       17.88782514
C          11.71592358       16.50498474       18.50467194
C          12.72470009       17.13626147       17.60743083
C          13.79556138       17.84486259       18.13676699
C          17.00995529       16.08753560       20.88625897
C          16.47191489       15.96829501       16.28788452
C          17.42534287       15.92824827       17.30619810
C          18.04325877       14.55450959       17.79307451
C          17.58902547       13.43552609       17.14239380
C          16.55221088       13.53253006       16.13240069
C          14.66188366       14.88475743       15.43118703
C          14.09870111       16.15951811       15.81635130
C          15.31758727       16.85060769       16.42592461
C          15.11742131       17.65459571       17.55025571
C          16.12496371       17.57938412       18.60859021
C          17.17331793       16.68575585       18.48834373
C          18.07481502       14.64511738       19.18711486
C          17.87649766       13.48876514       19.94453868
C          17.46356675       12.23700862       19.29948608
C          17.31019832       12.21901389       17.91902179
C          16.11051997       11.56491519       17.35663114
C          15.68283519       12.36206842       16.24054764
C          14.32749355       12.50550065       16.00490524
C          13.78935608       13.77355276       15.60537746
C          12.85814424       16.35087957       16.41568794
C          11.97895326       15.14065009       16.58672847
C          12.42905712       13.83347403       16.10791349
C          12.18424932       12.60758269       16.88128163
C          13.32640273       11.73872386       16.75596195
C          13.82072361       10.99157158       17.89363083
C          15.26290461       10.95283061       18.20199502
C          15.40506223       10.92675381       19.61788932
C          16.52127473       11.52707742       20.21398082
C          17.62682045       15.96845120       19.66721881
C          17.20643238       13.58186755       21.19079166
C          16.03768398       14.75607265       15.67850690
176
MD Time 1426.28
C          10.83832641       13.17492806       10.09298740
C           9.05683907       11.55223231       10.08124283
C           9.94519361       10.50647049       10.05768567
C          11.33359544       10.81549251       10.13979548
C          11.74880645       12.13444958       10.13034326
C          13.09880504       12.71278247       10.06180217
N          12.98884240       14.15180317        9.97485288
N          14.22004268       12.00950487        9.87852362
N          17.66638037       15.35681223        8.94987140
C          15.38558587       12.56276564        9.48515815
C          16.60762047       11.90243425        9.16179770
C          16.99056252       10.53810791        9.26922602
C          18.30478775       10.12718165        9.17090068
C          19.24677404       11.14574258        8.82192638
C          18.91965240       12.48348723        8.68944645
C          17.55381642       12.91345877        8.88645606
C          16.98926132       14.23346286        9.12206224
N          15.66274741       13.95685928        9.43913179
C          11.62547055       14.38795191       10.09739798
C           9.47260740       12.92138052       10.07411091
C          17.10022568       16.60068698        9.05604569
C          19.27271477       18.04802317        8.63866113
C          13.42635646       18.42053187       10.13593105
C          12.12193323       19.11112925       10.21281318
C          11.82143078       20.46241108       10.30225732
C          10.48390111       20.87322256       10.29988584
C           9.49011957       19.90950140       10.21860157
C           9.76907912       18.52963756       10.20421687
C          11.10230492       18.10416673       10.22662891
C          11.71518055       16.77120248       10.11291355
N          13.11684055       17.00241539       10.04351412
N          11.04284468       15.61644453       10.09377053
C          17.91176769       17.84584768        9.01616011
C          19.77010439       19.34999896        8.63227316
C          18.90855590       20.38495140        9.06764927
C          17.53822148       20.14648040        9.44986771
C          17.03038505       18.86584434        9.44520907
C          15.73401195       18.29702863        9.72812127
N          15.81930985       16.93582412        9.45662233
N          14.63155134       18.95529400       10.10280333
H          13.80763120       16.25092528        9.99182059
H          14.87380124       14.57778939        9.68037311
H          10.34372135       21.94296783       10.23002216
H          12.62733286       21.15842115       10.44095536
H          16.85661683       21.00092496        9.61910459
H          19.24126070       21.41415148        9.18480001
H          20.84443358       19.57120310        8.62353786
H          19.90256455       17.24999896        8.33972022
H          19.75245721       13.22427104        8.42659641
H          20.28480811       10.95799402        8.80621875
H          18.46812505        9.05283644        9.36687876
H          16.17588639        9.83138350        9.51316693
H          12.09575902       10.09729591       10.32940390
H           9.64340212        9.43497304        9.92132183
H           7.95557210       11.36263672       10.06883565
H           8.83414217       13.72111218       10.05458788
H           9.01488706       17.77316663       10.17463575
H           8.43728796       20.24981696       10.19637408
C          10.22728272       11.72270527       13.20030606
C           8.54175160        9.97641779       13.33579477
C           9.52954713        8.96189198       13.40285438
C          10.88211215        9.35186196       13.47899143
C          11.24829797       10.73994692       13.31788317
C          12.55478733       11.45495839       13.28301877
N          12.32619425       12.81719574       13.08955329
N          13.77863097       10.88988384       13.26550993
N          17.25488027       14.19126860       12.19007108
C          14.90092986       11.52343202       12.93186041
C          16.21382249       10.87002874       12.93042231
C          16.54416755        9.53150147       13.13946201
C          17.94554551        9.16094901       13.09541981
C          18.93766983       10.05945982       12.82167957
C          18.59428765       11.39270672       12.42563853
C          17.22944898       11.79923197       12.55007275
C          16.58525635       13.09338290       12.51351914
N          15.21014511       12.91512101       12.72143538
C          10.96012354       13.02907575       13.05802306
C           8.85919003       11.34146214       13.19715619
C          16.72913797       15.45302795       12.39079797
C          18.71020633       17.05745020       12.09056932
C          12.78270650       17.00122835       13.11020574
C          11.50886254       17.68728315       13.30030516
C          11.27685825       19.04284438       13.53428173
C           9.92232942       19.46668766       13.65256631
C           8.82847799       18.55397967       13.42104663
C           9.12783087       17.24772572       13.16320695
C          10.47142600       16.77002758       13.15582282
C          11.04052288       15.42323843       13.04691366
N          12.40722164       15.67558278       12.98906003
N          10.35708280       14.25553100       12.98614179
C          17.39781294       16.71219203       12.46798282
C          19.04854635       18.39974667       12.21515547
C          18.10274059       19.35597120       12.62082493
C          16.74119366       19.02814845       12.93826838
C          16.42770127       17.67814011       12.87756645
C          15.15536196       17.00544165       12.84575911
N          15.31388346       15.60608389       12.62291941
N          13.96815038       17.57422549       13.10107858
H          13.08569983       14.88281762       12.88043841
H          14.56709844       13.64704835       12.45035058
H           9.63754747       20.49669217       13.90744531
H          12.02842912       19.79732522       13.49621384
H          16.02080897       19.84363319       13.04622930
H          18.33971328       20.42019119       12.65771582
H          20.04482034       18.70103060       11.85780304
H          19.43054608       16.29885061       11.63725169
H          19.41981627       12.09165888       12.17192541
H          19.95473105        9.77907729       12.71807446
H          18.12906786        8.04458458       13.14406430
H          15.77614267        8.79929777       13.37470093
H          11.60988127        8.56020011       13.60046747
H           9.19820377        7.87095440       13.46368580
H           7.45993068        9.72489092       13.44500057
H           8.13919250       12.17568920       13.23160824
H           8.36283241       16.51643834       12.88884637
H           7.81089768       18.92694846       13.51544055
C          13.23758808       14.05503731       22.21013578
C          14.64430427       13.88214093       22.47688437
C          15.41902502       15.05784862       22.35951344
C          14.94362754       16.38488437       21.99704731
C          13.58092436       16.45797115       21.58446460
C          12.72253014       15.30790493       21.70301900
C          12.75769954       12.78328987       21.54440227
C          13.93584365       11.83832374       21.39603154
C          15.05907154       12.57047186       21.95648637
C          16.37675047       12.38906295       21.35770166
C          16.75939228       14.89857952       21.71592442
C          15.89150742       16.97305763       20.98933951
C          15.41209727       17.70769218       19.85528817
C          14.00312425       17.85573800       19.56136348
C          13.09931412       17.27158341       20.41665508
C          11.92606918       16.58460839       19.91025129
C          11.75092661       15.33026534       20.62114799
C          11.35114670       14.10648128       20.05874252
C          11.81655135       12.82897745       20.50788407
C          14.08201473       11.03646750       20.26171265
C          13.08386645       11.08777703       19.18974320
C          11.92140992       11.94009699       19.25783503
C          11.50854598       12.70828553       18.09281322
C          11.10463292       14.05726056       18.59208763
C          11.34407216       15.24842922       17.89121464
C          11.71671814       16.50249343       18.50322102
C          12.72161131       17.13759630       17.61012815
C          13.79841303       17.84668117       18.14233863
C          17.00662437       16.08909707       20.88786066
C          16.46867280       15.97165387       16.28710479
C          17.42827320       15.92894332       17.30993397
C          18.04403828       14.55754088       17.79736429
C          17.59034491       13.43763442       17.14619843
C          16.55526944       13.53634516       16.13053961
C          14.66397811       14.88553672       15.43003988
C          14.09584965       16.16199763       15.81625407
C          15.31821879       16.85035013       16.42793628
C          15.12099802       17.65563582       17.55430378
C          16.12582167       17.57888584       18.60958916
C          17.17348001       16.68508599       18.48962002
C          18.07631672       14.64551740       19.18820069
C          17.87579017       13.48902530       19.94429609
C          17.46784199       12.23704991       19.30307958
C          17.31136344       12.21663110       17.91825857
C          16.11347784       11.56245276       17.35461479
C          15.68431223       12.36014112       16.23672439
C          14.32922823       12.50205950       16.00505461
C          13.79294165       13.77652130       15.60544284
C          12.86149019       16.34953594       16.41746379
C          11.97772671       15.13828459       16.58979812
C          12.42465283       13.83689901       16.10729569
C          12.18574533       12.61129347       16.87841980
C          13.32827142       11.74198140       16.75393972
C          13.82239823       10.99146892       17.89135375
C          15.26042909       10.95233861       18.20311653
C          15.40655865       10.92552490       19.61760525
C          16.52289516       11.52961933       20.21138032
C          17.62974119       15.96668721       19.66848425
C          17.20633029       13.58240189       21.18901105
C          16.03769142       14.75558143       15.67934657
176
MD Time 1446.95
C          10.83864315       13.17561484       10.09302827
C           9.05994629       11.55004686       10.07818671
C           9.94581030       10.50947534       10.05388570
C          11.33598198       10.81590276       10.14147228
C          11.74907620       12.13636820       10.12983369
C          13.09669567       12.71043931       10.06076903
N          12.99012839       14.15363279        9.97417464
N          14.21707068       12.01405921        9.87839104
N          17.66572336       15.35991140        8.94469941
C          15.38665841       12.56275180        9.48328303
C          16.60604951       11.90203579        9.16244598
C          16.99050261       10.53876255        9.26726946
C          18.30322193       10.12432414        9.17040576
C          19.24699302       11.14326027        8.81719529
C          18.92129839       12.48270625        8.68965668
C          17.55475623       12.91462141        8.87942073
C          16.99007864       14.23407305        9.11659339
N          15.66103522       13.95886322        9.43651372
C          11.62302878       14.38876709       10.09765524
C           9.47622150       12.92244814       10.06815735
C          17.10122623       16.60167200        9.05358981
C          19.27543774       18.04873115        8.63949494
C          13.42351793       18.41929030       10.13854840
C          12.12448226       19.11229746       10.21313394
C          11.82059104       20.46471460       10.30403239
C          10.48796344       20.87309612       10.30454079
C           9.49407660       19.90343905       10.21887963
C           9.76688702       18.53168992       10.20589825
C          11.10173096       18.11005621       10.22353482
C          11.71426047       16.76844501       10.11300709
N          13.11719047       17.00306627       10.04370981
N          11.04614259       15.61420250       10.08984669
C          17.91218200       17.84759218        9.01599016
C          19.76946079       19.35050161        8.63167989
C          18.91050236       20.38216167        9.06499841
C          17.53767313       20.14982990        9.44933815
C          17.02851680       18.86605190        9.44577812
C          15.73216863       18.29674109        9.72651980
N          15.81725508       16.93850324        9.45544924
N          14.63039245       18.95601525       10.10486365
H          13.79767102       16.24304948       10.00123825
H          14.88216768       14.56130839        9.68669042
H          10.34444795       21.94188027       10.22847895
H          12.62896064       21.16415873       10.43452640
H          16.84861520       21.00105294        9.62315508
H          19.24363489       21.41187399        9.18797893
H          20.85264121       19.56008067        8.61292378
H          19.90932279       17.24173273        8.34454585
H          19.74435742       13.22559900        8.41911587
H          20.29260024       10.95407318        8.80871176
H          18.46037332        9.05418415        9.36472764
H          16.16817078        9.83907705        9.51832678
H          12.10245595       10.09455996       10.33850774
H           9.64999136        9.43567815        9.92719026
H           7.96016366       11.35488533       10.05959432
H           8.82393805       13.72765741       10.05384184
H           9.00211195       17.77840180       10.16532633
H           8.43374750       20.26189038       10.19517770
C          10.23055774       11.72421771       13.20252092
C           8.54072670        9.97955190       13.33595301
C           9.52999355        8.96527593       13.39731204
C          10.88377843        9.35610126       13.47767962
C          11.24545013       10.74451302       13.31709512
C          12.55415138       11.45332759       13.28288917
N          12.32485439       12.81646920       13.08344309
N          13.77777134       10.89129004       13.26798532
N          17.25271936       14.19201525       12.18953732
C          14.90108156       11.52063822       12.93147922
C          16.21901836       10.87014767       12.92720659
C          16.54124775        9.52800102       13.13665942
C          17.94380394        9.16105176       13.10134507
C          18.93578929       10.05825462       12.81935947
C          18.59433614       11.39357331       12.42500445
C          17.23189018       11.79844783       12.55096107
C          16.58422886       13.09399892       12.51333636
N          15.20948783       12.91568222       12.72084526
C          10.96054413       13.03114718       13.05852109
C           8.85574602       11.34222020       13.19538005
C          16.72946539       15.45380009       12.39259908
C          18.71033704       17.05725041       12.09327272
C          12.78289592       17.00005949       13.11239496
C          11.50837641       17.68675233       13.30222235
C          11.27702337       19.04278149       13.53292845
C           9.92481227       19.46788301       13.65483551
C           8.82822684       18.55298034       13.42205284
C           9.12477577       17.24536050       13.16517790
C          10.47158283       16.76814791       13.15173779
C          11.04164947       15.42141583       13.04881867
N          12.40760550       15.67551557       12.98944661
N          10.36262420       14.25414320       12.98608326
C          17.39414684       16.71106230       12.47173807
C          19.05315768       18.40184590       12.21847814
C          18.10295643       19.35831693       12.62101547
C          16.74021903       19.02841477       12.93796692
C          16.42608139       17.67861143       12.87856728
C          15.15926065       17.00458451       12.84435351
N          15.31322170       15.60405025       12.62340143
N          13.96513874       17.57064328       13.10356044
H          13.09261595       14.88448206       12.88279090
H          14.56803036       13.64536325       12.44582025
H           9.63745737       20.50441823       13.89068053
H          12.03751347       19.80416172       13.51335486
H          16.02132288       19.84350326       13.04108506
H          18.33534047       20.42355190       12.66376870
H          20.04633976       18.70581970       11.86562281
H          19.43456161       16.30658015       11.64050769
H          19.43098784       12.07783066       12.16847631
H          19.95524249        9.77773054       12.72867423
H          18.13253781        8.04282309       13.14390318
H          15.77341976        8.79304550       13.37795772
H          11.60934184        8.56085691       13.59498480
H           9.20821037        7.87090240       13.47011713
H           7.46230456        9.72133215       13.43348153
H           8.13343436       12.17958554       13.23209378
H           8.36250791       16.51462765       12.88530896
H           7.81160601       18.93205556       13.52020487
C          13.23757846       14.05638076       22.21238950
C          14.64134005       13.88428618       22.47830376
C          15.41507396       15.05873079       22.35813827
C          14.94037464       16.37912772       21.99828867
C          13.57758897       16.45557694       21.58383824
C          12.72489158       15.30543990       21.70671075
C          12.75886184       12.78533439       21.54584241
C          13.93862961       11.83494975       21.39432998
C          15.05773106       12.57361966       21.95665878
C          16.37244128       12.38650655       21.35839368
C          16.75930626       14.90028960       21.71535960
C          15.89148139       16.96955201       20.98533462
C          15.41566258       17.70392832       19.85858467
C          14.00630699       17.85656137       19.56418681
C          13.09848961       17.27024504       20.41804891
C          11.92015059       16.58333039       19.90796277
C          11.75325304       15.33198137       20.62485805
C          11.35216869       14.10845248       20.06205207
C          11.81479453       12.82843011       20.51382740
C          14.08332714       11.03791123       20.26046753
C          13.08412961       11.08684881       19.18806821
C          11.91870011       11.93826898       19.25914959
C          11.50437563       12.70715130       18.08838247
C          11.10905884       14.05825218       18.59166857
C          11.33800212       15.24652869       17.89440871
C          11.71774916       16.50012912       18.50182306
C          12.71828861       17.13902265       17.61290942
C          13.80138049       17.84843718       18.14779890
C          17.00325490       16.09051337       20.88960543
C          16.46556641       15.97519146       16.28650237
C          17.43133349       15.92925900       17.31370102
C          18.04455323       14.56128694       17.80116661
C          17.59153889       13.43943615       17.14998359
C          16.55833945       13.54000801       16.12852039
C          14.66526512       14.88601735       15.42876230
C          14.09366254       16.16469997       15.81634265
C          15.31853032       16.85016075       16.42980951
C          15.12471872       17.65667396       17.55820904
C          16.12644995       17.57849330       18.61053927
C          17.17389949       16.68450393       18.49106403
C          18.07800664       14.64597128       19.18962963
C          17.87513340       13.48923412       19.94398617
C          17.47214094       12.23705754       19.30675096
C          17.31249466       12.21424818       17.91746290
C          16.11701634       11.56020884       17.35248517
C          15.68587577       12.35832604       16.23286306
C          14.33085931       12.49851411       16.00505262
C          13.79652976       13.77944741       15.60536733
C          12.86462091       16.34777479       16.41919101
C          11.97671109       15.13577470       16.59270386
C          12.42028213       13.84078556       16.10682552
C          12.18715231       12.61509476       16.87552652
C          13.33045450       11.74513491       16.75217970
C          13.82378705       10.99155322       17.88907931
C          15.25739730       10.95152966       18.20417611
C          15.40802842       10.92429297       19.61765216
C          16.52464263       11.53231934       20.20857240
C          17.63286752       15.96470574       19.66943201
C          17.20595543       13.58333210       21.18768581
C          16.03790934       14.75495496       15.68020543
176
MD Time 1467.62
C          10.83883924       13.17638984       10.09305459
C           9.06258022       11.54825523       10.07503145
C           9.94682206       10.51217186       10.05006524
C          11.33825414       10.81627713       10.14318594
C          11.74958669       12.13807947       10.12932521
C          13.09452909       12.70837406       10.05963134
N          12.99134881       14.15520196        9.97362080
N          14.21418889       12.01855590        9.87816372
N          17.66495778       15.36324343        8.93949874
C          15.38760341       12.56291758        9.48154908
C          16.60463752       11.90154113        9.16309752
C          16.99004509       10.53942431        9.26538964
C          18.30159378       10.12161606        9.16982127
C          19.24717991       11.14064705        8.81261312
C          18.92284139       12.48229676        8.68976300
C          17.55617965       12.91560543        8.87245654
C          16.99083360       14.23442346        9.11096722
N          15.65921845       13.96073254        9.43391096
C          11.62066476       14.38989290       10.09770755
C           9.48003969       12.92304920       10.06225388
C          17.10236390       16.60276522        9.05130492
C          19.27782993       18.04947003        8.64036860
C          13.42053935       18.41777326       10.14116331
C          12.12717164       19.11318425       10.21355621
C          11.81982555       20.46697745       10.30585551
C          10.49224787       20.87296427       10.30910305
C           9.49764169       19.89746225       10.21917239
C           9.76480937       18.53371478       10.20758862
C          11.10121325       18.11597282       10.22030546
C          11.71345884       16.76587871       10.11307534
N          13.11731982       17.00388509       10.04395418
N          11.04944072       15.61201919       10.08597657
C          17.91275587       17.84906819        9.01573403
C          19.76884640       19.35115263        8.63140663
C          18.91214477       20.37941550        9.06244096
C          17.53723587       20.15346369        9.44869190
C          17.02692754       18.86642746        9.44626290
C          15.73047880       18.29617783        9.72481278
N          15.81506857       16.94097423        9.45429815
N          14.62919185       18.95686201       10.10685041
H          13.78846432       16.23563246       10.01030964
H          14.89024597       14.54668683        9.69284736
H          10.34352068       21.94166630       10.22759950
H          12.63162199       21.17108633       10.42758567
H          16.84182830       21.00059304        9.62787557
H          19.24681374       21.40991038        9.19057820
H          20.86012940       19.54868601        8.60077583
H          19.91682260       17.23124160        8.34894821
H          19.73347450       13.22501521        8.41284908
H          20.30315900       10.94847887        8.81052374
H          18.45439355        9.05634208        9.36213870
H          16.16151344        9.84704019        9.52336357
H          12.11005068       10.08952603       10.34680656
H           9.65659366        9.43859239        9.93409353
H           7.96644665       11.34727523       10.05025207
H           8.80966483       13.73791482       10.05319182
H           8.98781845       17.78291502       10.15601185
H           8.43177676       20.27288452       10.19390536
C          10.23379573       11.72578331       13.20463174
C           8.53947827        9.98269796       13.33608708
C           9.53038904        8.96862495       13.39187351
C          10.88542599        9.36048152       13.47622703
C          11.24261718       10.74877476       13.31645420
C          12.55337842       11.45179805       13.28263937
N          12.32354589       12.81572984       13.07736391
N          13.77687889       10.89267954       13.27037143
N          17.25064586       14.19311771       12.18915780
C          14.90146875       11.51800420       12.93126519
C          16.22416535       10.87013764       12.92390888
C          16.53864657        9.52447432       13.13390778
C          17.94149187        9.16062999       13.10728404
C          18.93380881       10.05752397       12.81677159
C          18.59437180       11.39443406       12.42458985
C          17.23444620       11.79760907       12.55193665
C          16.58324721       13.09456222       12.51288362
N          15.20886809       12.91598991       12.72021860
C          10.96086217       13.03320140       13.05906507
C           8.85254798       11.34315948       13.19374961
C          16.72929413       15.45409998       12.39437947
C          18.71046868       17.05685414       12.09595807
C          12.78285799       16.99890814       13.11466268
C          11.50811585       17.68640960       13.30412395
C          11.27678605       19.04288012       13.53156180
C           9.92721475       19.46899117       13.65705714
C           8.82826335       18.55231400       13.42321970
C           9.12181712       17.24250297       13.16702297
C          10.47135209       16.76624697       13.14772555
C          11.04264367       15.41970146       13.05064037
N          12.40831934       15.67497676       12.98978491
N          10.36824434       14.25277725       12.98611878
C          17.39074784       16.70994963       12.47541488
C          19.05784760       18.40404633       12.22174477
C          18.10296543       19.36073649       12.62129178
C          16.73958904       19.02875149       12.93752674
C          16.42446787       17.67911991       12.87937566
C          15.16288057       17.00332416       12.84310812
N          15.31280156       15.60227128       12.62382142
N          13.96227244       17.56720809       13.10601779
H          13.09779886       14.88820407       12.88563396
H          14.56795751       13.64466179       12.44227747
H           9.63844772       20.51190820       13.87360122
H          12.04834446       19.81114552       13.53110314
H          16.02134384       19.84273576       13.03665239
H          18.33190617       20.42700165       12.66950270
H          20.04757090       18.71109495       11.87397020
H          19.43617407       16.31616986       11.64539477
H          19.44026264       12.06381003       12.16506556
H          19.95846649        9.77518790       12.73937515
H          18.13634314        8.04404965       13.14462570
H          15.77056322        8.78666643       13.38107121
H          11.61029490        8.56158510       13.58955354
H           9.21956332        7.87430021       13.47647798
H           7.46607104        9.71763763       13.42143907
H           8.12751635       12.18197467       13.23199430
H           8.36159761       16.51273800       12.88241877
H           7.81194093       18.93691203       13.52447452
C          13.23727434       14.05755820       22.21430337
C          14.63830601       13.88654107       22.47966890
C          15.41166480       15.05944426       22.35667122
C          14.93686321       16.37340060       21.99909450
C          13.57431171       16.45333060       21.58326319
C          12.72730046       15.30271667       21.71056245
C          12.76021633       12.78731727       21.54726374
C          13.94119956       11.83198764       21.39283841
C          15.05681829       12.57666535       21.95674870
C          16.36777064       12.38420272       21.35938148
C          16.75923968       14.90163752       21.71465109
C          15.89113820       16.96623471       20.98152620
C          15.41945469       17.70007753       19.86216243
C          14.00950594       17.85747301       19.56719500
C          13.09754221       17.26866048       20.41979687
C          11.91423292       16.58190535       19.90536275
C          11.75554893       15.33361336       20.62880699
C          11.35298033       14.11054926       20.06505991
C          11.81312040       12.82776415       20.51954053
C          14.08468065       11.03934360       20.25904829
C          13.08426829       11.08604768       19.18616807
C          11.91633421       11.93643126       19.26073868
C          11.50012715       12.70623787       18.08423288
C          11.11351202       14.05915834       18.59151718
C          11.33186074       15.24450879       17.89735901
C          11.71899650       16.49789472       18.50049372
C          12.71478583       17.14054691       17.61576488
C          13.80442945       17.85010992       18.15311603
C          16.99990379       16.09175105       20.89145293
C          16.46265183       15.97887505       16.28610966
C          17.43448135       15.92920671       17.31745232
C          18.04480308       14.56571707       17.80445208
C          17.59259794       13.44093493       17.15373014
C          16.56142201       13.54347015       16.12636955
C          14.66573589       14.88620991       15.42735646
C          14.09218040       16.16760425       15.81660586
C          15.31851048       16.85005904       16.43155192
C          15.12855542       17.65770634       17.56195380
C          16.12686651       17.57820310       18.61145575
C          17.17458806       16.68400605       18.49268227
C          18.07988642       14.64648249       19.19141618
C          17.87453471       13.48939480       19.94362424
C          17.47644641       12.23702018       19.31044569
C          17.31360475       12.21188482       17.91666387
C          16.12109354       11.55816992       17.35026264
C          15.68755463       12.35662830       16.22898340
C          14.33238092       12.49491880       16.00487705
C          13.80008425       13.78230098       15.60516138
C          12.86748590       16.34561225       16.42090420
C          11.97590204       15.13315006       16.59544593
C          12.41599877       13.84510528       16.10648473
C          12.18846032       12.61896856       16.87261928
C          13.33293727       11.74817023       16.75069200
C          13.82487141       10.99182762       17.88681708
C          15.25387119       10.95042805       18.20513314
C          15.40946980       10.92306327       19.61801894
C          16.52649575       11.53515911       20.20558203
C          17.63617192       15.96253434       19.67009532
C          17.20529178       13.58465031       21.18683041
C          16.03834012       14.75423902       15.68108005
176
MD Time 1488.29
C          10.83892276       13.17726208       10.09305912
C           9.06473555       11.54689208       10.07176652
C           9.94827133       10.51453313       10.04624126
C          11.34044917       10.81658971       10.14494125
C          11.75033209       12.13955202       10.12882107
C          13.09231214       12.70663474       10.05839160
N          12.99247753       14.15650333        9.97319502
N          14.21143364       12.02296731        9.87783486
N          17.66408323       15.36678547        8.93427193
C          15.38839225       12.56327246        9.47996595
C          16.60341587       11.90097552        9.16373053
C          16.98917276       10.54008830        9.26360024
C          18.29990474       10.11910347        9.16913112
C          19.24740234       11.13789219        8.80819347
C          18.92425236       12.48222866        8.68975440
C          17.55805192       12.91639449        8.86558729
C          16.99151544       14.23453188        9.10518804
N          15.65740886       13.96237481        9.43128973
C          11.61843083       14.39129731       10.09754961
C           9.48391515       12.92329107       10.05640979
C          17.10361729       16.60398164        9.04919707
C          19.27991112       18.05016884        8.64126663
C          13.41747378       18.41599340       10.14376811
C          12.12996488       19.11380207       10.21408196
C          11.81920690       20.46920756       10.30772683
C          10.49669848       20.87281666       10.31356167
C           9.50076120       19.89170082       10.21948754
C           9.76281647       18.53563225       10.20927037
C          11.10076158       18.12184923       10.21695291
C          11.71277634       16.76356063       10.11311139
N          13.11721051       17.00485469       10.04425255
N          11.05270978       15.60992330       10.08216712
C          17.91348785       17.85027547        9.01539357
C          19.76832695       19.35192148        8.63143040
C          18.91346473       20.37676888        9.05999644
C          17.53689383       20.15733785        9.44793257
C          17.02564019       18.86699973        9.44665563
C          15.72893525       18.29535335        9.72300957
N          15.81276529       16.94322030        9.45316189
N          14.62793921       18.95782275       10.10876189
H          13.78015282       16.22872590       10.01899336
H          14.89684066       14.53508613        9.69920279
H          10.34096128       21.94222540       10.22741420
H          12.63501839       21.17891268       10.42013472
H          16.83645372       20.99952514        9.63318838
H          19.25076957       21.40813472        9.19254250
H          20.86638745       19.53713867        8.58721988
H          19.92449986       17.21931591        8.35316065
H          19.72026793       13.22274883        8.40775511
H          20.31549514       10.94141733        8.81163667
H          18.45028689        9.05885834        9.35920090
H          16.15605807        9.85522245        9.52822159
H          12.11798777       10.08275086       10.35415710
H           9.66308653        9.44354111        9.94193398
H           7.97423196       11.33988408       10.04084913
H           8.79269072       13.75036655       10.05263424
H           8.97262728       17.78706624       10.14676995
H           8.43199793       20.28241976       10.19257262
C          10.23691157       11.72742035       13.20663027
C           8.53802986        9.98583475       13.33617978
C           9.53076406        8.97194832       13.38655971
C          10.88703282        9.36498194       13.47462878
C          11.23984187       10.75269852       13.31596867
C          12.55246408       11.45040030       13.28226248
N          12.32228739       12.81497612       13.07132498
N          13.77596524       10.89403999       13.27266475
N          17.24866908       14.19456740       12.18893331
C          14.90210136       11.51554834       12.93121325
C          16.22920979       10.86996987       12.92054655
C          16.53636437        9.52092431       13.13122122
C          17.93863186        9.15969032       13.11321136
C          18.93174591       10.05725017       12.81393594
C          18.59442139       11.39525480       12.42439174
C          17.23710389       11.79675156       12.55298688
C          16.58231670       13.09506560       12.51216245
N          15.20829228       12.91603106       12.71955691
C          10.96109723       13.03520300       13.05965043
C           8.84962219       11.34431212       13.19227180
C          16.72861582       15.45391254       12.39613533
C          18.71058072       17.05631425       12.09864532
C          12.78257584       16.99777110       13.11700872
C          11.50807042       17.68624038       13.30600056
C          11.27622100       19.04320018       13.53020037
C           9.92951243       19.47001554       13.65921078
C           8.82858597       18.55198413       13.42455219
C           9.11897553       17.23917456       13.16873710
C          10.47073128       16.76434206       13.14380331
C          11.04351787       15.41810731       13.05236736
N          12.40936396       15.67396805       12.99007907
N          10.37391196       14.25145230       12.98624950
C          17.38767207       16.70887568       12.47899833
C          19.06255337       18.40632771       12.22497009
C          18.10277143       19.36321616       12.62165756
C          16.73931500       19.02915480       12.93694292
C          16.42287602       17.67966767       12.87999101
C          15.16613729       17.00166812       12.84203984
N          15.31262706       15.60076018       12.62418019
N          13.95960966       17.56392562       13.10844217
H          13.10120781       14.89390378       12.88894077
H          14.56683352       13.64495264       12.43972419
H           9.64056745       20.51893455       13.85629945
H          12.06012411       19.81748283       13.54933687
H          16.02078233       19.84142517       13.03295720
H          18.32943129       20.43049675       12.67488037
H          20.04879880       18.71686039       11.88272125
H          19.43557464       16.32723626       11.65175736
H          19.44759673       12.04983780       12.16167536
H          19.96397384        9.77158535       12.75014215
H          18.14042631        8.04819354       13.14631184
H          15.76772622        8.78041985       13.38393510
H          11.61266665        8.56253750       13.58417932
H           9.23207391        7.88104509       13.48265784
H           7.47091389        9.71380836       13.40898117
H           8.12163183       12.18271124       13.23128839
H           8.36002564       16.51073798       12.88019804
H           7.81202891       18.94142051       13.52820953
C          13.23667852       14.05854270       22.21588472
C          14.63522133       13.88889085       22.48098087
C          15.40881581       15.05997029       22.35512241
C          14.93309930       16.36775126       21.99944179
C          13.57111658       16.45123520       21.58275463
C          12.72972004       15.29977269       21.71454764
C          12.76176095       12.78921505       21.54866426
C          13.94353385       11.82947522       21.39158461
C          15.05632431       12.57958336       21.95674978
C          16.36278462       12.38218655       21.36064965
C          16.75918122       14.90261416       21.71380753
C          15.89045653       16.96310236       20.97796919
C          15.42344392       17.69616786       19.86598113
C          14.01269601       17.85845595       19.57041196
C          13.09646633       17.26683796       20.42186610
C          11.90836899       16.58035688       19.90249911
C          11.75778816       15.33513340       20.63297121
C          11.35358682       14.11275200       20.06776448
C          11.81152530       12.82699090       20.52499209
C          14.08607428       11.04075119       20.25744603
C          13.08427178       11.08538369       19.18405403
C          11.91431840       11.93459215       19.26258046
C          11.49582328       12.70554093       18.08039594
C          11.11796916       14.05994461       18.59166787
C          11.32568280       15.24240748       17.90001948
C          11.72043799       16.49578986       18.49924528
C          12.71115771       17.14217312       17.61868103
C          13.80752620       17.85167926       18.15826112
C          16.99662927       16.09277814       20.89336129
C          16.45997945       15.98266840       16.28595424
C          17.43767460       15.92880200       17.32114388
C          18.04478792       14.57079161       17.80719647
C          17.59351456       13.44214085       17.15741988
C          16.56451912       13.54668611       16.12411336
C          14.66539563       14.88612901       15.42582764
C          14.09143336       16.17068742       15.81703496
C          15.31815164       16.85006259       16.43317177
C          15.13247730       17.65872907       17.56552028
C          16.12709466       17.57800911       18.61235504
C          17.17555456       16.68358997       18.49447812
C          18.08195762       14.64705337       19.19356582
C          17.87399973       13.48951142       19.94323000
C          17.48074176       12.23692722       19.31410981
C          17.31470718       12.20956121       17.91589021
C          16.12565858       11.55631828       17.34797077
C          15.68937417       12.35505129       16.22510504
C          14.33379171       12.49132672       16.00450686
C          13.80356763       13.78505213       15.60483533
C          12.87004278       16.34306796       16.42263687
C          11.97529357       15.13044359       16.59802627
C          12.41185607       13.84982290       16.10625470
C          12.18965954       12.62289743       16.86971764
C          13.33570013       11.75107682       16.74948386
C          13.82563517       10.99229317       17.88457699
C          15.24992131       10.94906134       18.20594679
C          15.41088030       10.92184081       19.61868884
C          16.52843125       11.53812068       20.20243819
C          17.63962428       15.96020337       19.67051363
C          17.20432753       13.58634359       21.18645276
C          16.03897858       14.75348128       15.68196650
176
MD Time 1508.96
C          10.83890779       13.17823697       10.09303512
C           9.06642501       11.54598349       10.06838186
C           9.95019456       10.51655191       10.04243213
C          11.34261100       10.81681048       10.14674406
C          11.75130156       12.14076022       10.12832449
C          13.09005512       12.70526272       10.05705188
N          12.99349070       14.15753107        9.97290016
N          14.20883867       12.02726938        9.87739794
N          17.66309915       15.37050958        8.92902146
C          15.38899835       12.56382244        9.47854236
C          16.60241313       11.90036541        9.16432427
C          16.98787711       10.54075323        9.26191299
C          18.29815656       10.11683283        9.16831955
C          19.24773381       11.13498695        8.80394881
C          18.92549462       12.48245476        8.68962557
C          17.56033304       12.91697302        8.85883699
C          16.99211654       14.23441994        9.09925974
N          15.65570671       13.96371138        9.42861711
C          11.61637370       14.39294619       10.09717742
C           9.48769170       12.92329215       10.05063476
C          17.10496426       16.60533421        9.04727130
C          19.28170859       18.05075494        8.64217260
C          13.41437222       18.41396258       10.14635562
C          12.13282543       19.11416809       10.21471288
C          11.81881155       20.47141842       10.30964558
C          10.50125315       20.87264967       10.31790641
C           9.50340125       19.88627773       10.21983324
C           9.76087334       18.53736017       10.21092474
C          11.10038322       18.12761923       10.21348988
C          11.71221135       16.76154220       10.11310842
N          13.11684960       17.00595386       10.04460955
N          11.05592252       15.60794421       10.07842445
C          17.91437455       17.85121628        9.01497169
C          19.76795863       19.35277236        8.63172620
C          18.91445029       20.37427871        9.05768253
C          17.53663689       20.16140524        9.44706438
C          17.02467248       18.86779278        9.44694915
C          15.72753098       18.29428412        9.72111983
N          15.81036049       16.94522495        9.45203274
N          14.62662644       18.95888821       10.11059685
H          13.77283785       16.22241341       10.02725451
H          14.90092207       14.52748281        9.70609555
H          10.33683204       21.94337597       10.22795477
H          12.63880662       21.18729618       10.41218034
H          16.83260752       20.99791026        9.63902893
H          19.25545109       21.40640391        9.19382003
H          20.87099430       19.52558343        8.57239689
H          19.93175783       17.20680472        8.35742203
H          19.70536369       13.21918673        8.40372511
H          20.32850606       10.93313204        8.81202905
H          18.44812875        9.06127417        9.35600558
H          16.15187611        9.86352313        9.53286456
H          12.12566202       10.07485497       10.36040167
H           9.66931900        9.45019620        9.95059736
H           7.98319332       11.33276705       10.03142059
H           8.77450931       13.76339833       10.05214671
H           8.95721162       17.79124443       10.13769048
H           8.43481856       20.29019449       10.19119326
C          10.23982465       11.72914658       13.20850956
C           8.53641506        9.98894353       13.33621386
C           9.53115282        8.97527135       13.38138931
C          10.88858313        9.36957737       13.47288108
C          11.23716538       10.75625574       13.31564534
C          12.55140737       11.44916159       13.28175218
N          12.32109589       12.81420619       13.06533467
N          13.77504202       10.89536126       13.27486153
N          17.24679590       14.19635029       12.18886467
C          14.90298513       11.51328502       12.93131889
C          16.23410159       10.86961828       12.91713640
C          16.53439644        9.51735303       13.12861377
C          17.93525475        9.15826184       13.11910012
C          18.92963205       10.05740147       12.81087534
C          18.59450635       11.39600078       12.42440681
C          17.23984698       11.79590976       12.55409949
C          16.58144446       13.09550328       12.51117484
N          15.20776066       12.91580171       12.71885849
C          10.96126887       13.03711759       13.06027269
C           8.84699423       11.34570217       13.19095254
C          16.72742798       15.45323245       12.39786305
C          18.71064439       17.05569590       12.10136078
C          12.78203403       16.99664029       13.11943222
C          11.50822522       17.68622839       13.30784238
C          11.27540578       19.04379537       13.52886535
C           9.93168155       19.47096138       13.66127636
C           8.82919001       18.55198511       13.42605254
C           9.11626685       17.23540517       13.17031766
C          10.46972476       16.76244881       13.13998770
C          11.04428525       15.41664294       13.05398852
N          12.41072270       15.67250996       12.99033562
N          10.37959619       14.25018749       12.98647637
C          17.38496759       16.70785826       12.48247499
C          19.06721076       18.40866869       12.22816957
C          18.10238458       19.36574399       12.62211464
C          16.73940261       19.02962194       12.93621275
C          16.42132081       17.68025410       12.88041369
C          15.16895798       16.99962590       12.84116303
N          15.31269871       15.59952513       12.62447866
N          13.95720299       17.56080424       13.11082692
H          13.10299534       14.90129891       12.89265726
H          14.56470828       13.64614396       12.43819987
H           9.64384278       20.52530219       13.83887942
H          12.07206663       19.82243246       13.56789954
H          16.01955754       19.83967727       13.03001749
H          18.32791709       20.43398822       12.67987069
H          20.05032074       18.72312182       11.89174685
H          19.43311261       16.33925121       11.65934604
H          19.45302687       12.03619596       12.15827008
H          19.97109633        9.76713463       12.76094305
H          18.14475235        8.05497947       13.14904217
H          15.76506129        8.77456130       13.38644422
H          11.61631498        8.56391660       13.57885905
H           9.24549329        7.89081937       13.48856682
H           7.47642829        9.70982672       13.39621618
H           8.11592211       12.18173140       13.22996038
H           8.35773266       16.50860257       12.87866667
H           7.81201597       18.94548646       13.53137553
C          13.23579787       14.05930808       22.21714288
C          14.63210692       13.89132086       22.48224004
C          15.40653879       15.06029041       22.35350227
C          14.92909156       16.36222514       21.99930935
C          13.56802445       16.44929041       21.58232834
C          12.73211255       15.29664783       21.71863797
C          12.76349090       12.79100611       21.55004062
C          13.94561596       11.82744436       21.39059107
C          15.05623326       12.58235177       21.95665870
C          16.35753349       12.38048989       21.36217816
C          16.75911895       14.90321483       21.71283814
C          15.88942121       16.96014689       20.97471864
C          15.42759655       17.69223016       19.86999587
C          14.01585219       17.85949192       19.57386128
C          13.09525915       17.26478826       20.42422077
C          11.90261112       16.57870621       19.89942458
C          11.75994482       15.33651450       20.63732528
C          11.35399555       14.11504057       20.07016909
C          11.81000608       12.82612275       20.53015402
C          14.08750459       11.04212353       20.25565719
C          13.08413180       11.08486526       19.18173986
C          11.91265561       11.93276095       19.26465208
C          11.49148808       12.70505492       18.07689889
C          11.12240722       14.06057899       18.59215094
C          11.31950252       15.24026369       17.90234741
C          11.72204842       16.49381055       18.49808776
C          12.70745786       17.14390401       17.62164207
C          13.81063924       17.85312745       18.16320970
C          16.99348853       16.09356468       20.89528734
C          16.45759494       15.98653271       16.28605732
C          17.44087315       15.92806414       17.32473721
C          18.04450833       14.57646319       17.80938278
C          17.59428446       13.44307085       17.16103585
C          16.56763430       13.54961300       16.12177795
C          14.66426657       14.88579426       15.42418143
C          14.09143921       16.17392577       15.81762040
C          15.31745170       16.85018753       16.43467714
C          15.13645117       17.65974060       17.56889373
C          16.12716311       17.57790204       18.61325506
C          17.17680473       16.68325470       18.49645226
C          18.08422160       14.64768494       19.19607464
C          17.87353214       13.48958927       19.94282663
C          17.48501124       12.23676919       19.31769230
C          17.31581675       12.20729710       17.91517002
C          16.13065353       11.55463216       17.34563428
C          15.69135677       12.35359650       16.22124658
C          14.33509470       12.48778751       16.00392269
C          13.80693994       13.78766991       15.60439919
C          12.87225506       16.34016532       16.42442113
C          11.97487653       15.12769146       16.60044990
C          12.40790485       13.85489575       16.10611621
C          12.19074057       12.62686395       16.86684265
C          13.33871877       11.75384813       16.74855941
C          13.82606516       10.99294895       17.88236906
C          15.24562396       10.94745898       18.20657814
C          15.41225753       10.92063008       19.61963964
C          16.53042468       11.54118736       20.19917304
C          17.64319241       15.95774519       19.67073226
C          17.20305501       13.58839512       21.18655437
C          16.03981320       14.75273042       15.68285937
176
MD Time 1529.63
C          10.83881225       13.17931807       10.09297629
C           9.06767939       11.54554638       10.06486792
C           9.95262037       10.51824122       10.03865701
C          11.34478276       10.81690816       10.14859942
C          11.75248122       12.14168435       10.12783860
C          13.08776994       12.70429559       10.05561436
N          12.99436755       14.15828170        9.97273844
N          14.20643499       12.03143951        9.87684721
N          17.66200447       15.37438555        8.92374937
C          15.38939895       12.56457184        9.47728514
C          16.60165370       11.89973729        9.16485934
C          16.98615966       10.54142015        9.26033731
C          18.29635229       10.11484726        9.16737170
C          19.24824342       11.13192604        8.79989022
C          18.92652508       12.48291116        8.68937707
C          17.56297931       12.91732768        8.85222906
C          16.99263204       14.23411129        9.09318564
N          15.65418313       13.96469147        9.42586831
C          11.61453759       14.39480100       10.09658827
C           9.49121996       12.92316082       10.04493853
C          17.10638222       16.60683320        9.04553160
C          19.28325052       18.05115998        8.64307200
C          13.41128717       18.41169616       10.14891912
C          12.13571610       19.11430304       10.21545045
C          11.81871768       20.47362429       10.31160981
C          10.50584661       20.87246573       10.32212785
C           9.50554757       19.88130596       10.22021810
C           9.75894519       18.53881997       10.21253244
C          11.10008421       18.13321989       10.20992915
C          11.71176100       16.75987047       10.11305938
N          13.11623065       17.00715666       10.04502961
N          11.05905198       15.60611382       10.07475357
C          17.91540895       17.85189728        9.01447310
C          19.76778598       19.35366584        8.63226759
C          18.91509453       20.37200103        9.05551524
C          17.53645762       20.16561419        9.44609157
C          17.02403989       18.86882573        9.44713610
C          15.72625636       18.29299137        9.71915433
N          15.80786978       16.94697380        9.45090332
N          14.62524706       18.96004544       10.11235321
H          13.76655668       16.21682911       10.03506018
H          14.90184871       14.52448782        9.71374944
H          10.33123130       21.94486732       10.22925424
H          12.64261898       21.19586734       10.40373732
H          16.83034178       20.99587298        9.64534495
H          19.26079016       21.40456864        9.19436300
H          20.87364330       19.51418673        8.55645821
H          19.93803442       17.19453205        8.36194780
H          19.68953738       13.21486571        8.40058261
H          20.34110326       10.92388041        8.81167675
H          18.44796236        9.06316808        9.35263852
H          16.14895697        9.87179099        9.53727970
H          12.13249377       10.06645586       10.36539021
H           9.67511896        9.45808979        9.95995984
H           7.99288287       11.32595621       10.02199428
H           8.75654035       13.77553095       10.05168775
H           8.94223260       17.79581309       10.12887021
H           8.44042760       20.29599523       10.18977851
C          10.24245966       11.73097932       13.21026411
C           8.53467576        9.99200802       13.33617239
C           9.53159196        8.97863586       13.37637800
C          10.89006586        9.37423956       13.47098109
C          11.23462706       10.75942332       13.31548963
C          12.55020997       11.44810677       13.28110242
N          12.31998689       12.81341831       13.05940080
N          13.77412112       10.89663491       13.27695816
N          17.24503152       14.19844793       12.18895264
C          14.90412217       11.51122516       12.93157764
C          16.23879467       10.86905953       12.91369447
C          16.53273496        9.51376278       13.12609869
C          17.93139810        9.15639536       13.12492222
C          18.92750550       10.05793417       12.80761635
C          18.59464334       11.39663722       12.42463142
C          17.24265618       11.79511630       12.55526266
C          16.58063772       13.09586999       12.50992352
N          15.20726757       12.91530701       12.71811870
C          10.96139846       13.03891031       13.06092720
C           8.84468818       11.34734339       13.18979659
C          16.72573362       15.45206430       12.39955975
C          18.71062260       17.05507484       12.10413684
C          12.78122365       16.99550911       13.12193192
C          11.50856032       17.68635624       13.30964010
C          11.27441641       19.04470628       13.52757905
C           9.93370092       19.47183490       13.66323439
C           8.83006875       18.55230319       13.42772036
C           9.11370179       17.23123177       13.17176450
C          10.46834484       16.76058152       13.13629430
C          11.04496076       15.41531651       13.05549325
N          12.41236418       15.67064031       12.99056341
N          10.38526528       14.24900267       12.98680017
C          17.38267325       16.70691221       12.48583309
C          19.07175643       18.41104899       12.23135879
C          18.10181988       19.36830975       12.62266350
C          16.73985047       19.03014988       12.93533497
C          16.41981784       17.68087676       12.88064379
C          15.17127816       16.99721132       12.84049090
N          15.31301373       15.59857087       12.62471822
N          13.95509737       17.55784937       13.11316608
H          13.10348044       14.90992371       12.89670501
H          14.56172818       13.64804286       12.43777832
H           9.64827313       20.53085624       13.82145521
H          12.08344730       19.82535438       13.58660938
H          16.01762547       19.83757542       13.02784263
H          18.32734691       20.43741034       12.68444777
H          20.05241108       18.72987622       11.90092634
H          19.42928316       16.35156061       11.66782773
H          19.45666791       12.02319889       12.15479664
H          19.97901783        9.76209913       12.77173689
H          18.14931264        8.06393694       13.15289601
H          15.76270335        8.76932482       13.38850028
H          11.62104896        8.56595446       13.57358395
H           9.25952127        7.90309410       13.49414157
H           7.48214948        9.70566133       13.38324703
H           8.11046817       12.17906402       13.22800096
H           8.35467572       16.50631301       12.87784150
H           7.81205060       18.94902395       13.53394552
C          13.23464332       14.05982800       22.21809046
C          14.62898511       13.89381548       22.48344660
C          15.40483919       15.06038760       22.35182164
C          14.92485286       16.35686466       21.99868026
C          13.56505194       16.44749345       21.58199991
C          12.73443926       15.29338424       21.72280434
C          12.76539839       12.79266991       21.55138779
C          13.94743266       11.82591998       21.38987395
C          15.05652220       12.58495221       21.95647534
C          16.35207154       12.37914078       21.36394281
C          16.75904095       14.90343934       21.71175289
C          15.88802398       16.95735517       20.97182942
C          15.43187497       17.68829853       19.87415738
C          14.01895026       17.86056258       19.57756414
C          13.09392011       17.26252515       20.42682301
C          11.89700933       16.57697294       19.89619539
C          11.76199260       15.33773172       20.64184210
C          11.35421539       14.11739246       20.07228138
C          11.80856033       12.82517257       20.53500138
C          14.08896595       11.04345388       20.25368339
C          13.08384250       11.08449952       19.17924176
C          11.91134611       11.93094772       19.26693050
C          11.48714688       12.70477271       18.07376406
C          11.12680355       14.06103290       18.59299191
C          11.31335283       15.23811643       17.90430452
C          11.72380100       16.49194973       18.49702810
C          12.70373858       17.14574015       17.62462970
C          13.81373911       17.85443859       18.16794191
C          16.99053620       16.09408364       20.89718929
C          16.45553711       15.99042761       16.28643474
C          17.44403848       15.92701658       17.32819818
C          18.04396625       14.58267709       17.81100118
C          17.59490542       13.44374731       17.16456233
C          16.57077156       13.55221227       16.11938827
C          14.66238467       14.88522916       15.42242566
C          14.09220318       16.17729465       15.81835517
C          15.31641327       16.85044753       16.43607625
C          15.14044194       17.66074023       17.57206064
C          16.12710513       17.57787047       18.61417464
C          17.17834171       16.68300042       18.49860253
C          18.08667999       14.64837708       19.19892945
C          17.87313394       13.48963428       19.94244085
C          17.48924057       12.23653774       19.32114504
C          17.31694875       12.20511185       17.91452986
C          16.13601511       11.55308730       17.34327815
C          15.69352033       12.35226400       16.21742560
C          14.33629778       12.48434786       16.00310709
C          13.81016078       13.79012358       15.60386279
C          12.87409591       16.33693048       16.42628631
C          11.97463997       15.12493258       16.60272367
C          12.40419416       13.86027468       16.10605003
C          12.19169487       12.63085190       16.86401633
C          13.34196539       11.75648184       16.74792007
C          13.82615103       10.99379250       17.88020285
C          15.24105964       10.94565145       18.20699114
C          15.41359858       10.91943523       19.62084401
C          16.53245027       11.54434328       20.19582148
C          17.64684330       15.95519393       19.67080063
C          17.20147079       13.59078402       21.18713044
C          16.04082625       14.75203457       15.68375291
176
MD Time 1550.30
C          10.83865621       13.18050711       10.09287688
C           9.06854570       11.54558923       10.06121566
C           9.95556820       10.51963301       10.03493534
C          11.34700174       10.81685292       10.15050996
C          11.75385496       12.14231135       10.12736620
C          13.08546886       12.70376794       10.05408201
N          12.99509102       14.15875459        9.97271134
N          14.20425005       12.03545485        9.87617805
N          17.66079809       15.37838229        8.91845705
C          15.38957677       12.56552526        9.47619879
C          16.60115656       11.89911682        9.16531762
C          16.98403274       10.54209123        9.25888004
C          18.29449736       10.11318269        9.16627420
C          19.24898847       11.12870859        8.79602713
C          18.92729668       12.48351919        8.68901506
C          17.56594472       12.91744845        8.84578573
C          16.99305910       14.23363055        9.08696851
N          15.65286864       13.96530086        9.42303240
C          11.61296266       14.39682021       10.09578060
C           9.49436835       12.92298515       10.03933063
C          17.10784866       16.60848573        9.04398079
C          19.28456205       18.05132526        8.64395377
C          13.40827298       18.40921450       10.15145231
C          12.13859896       19.11423024       10.21629607
C          11.81900155       20.47583719       10.31361603
C          10.51041252       20.87227147       10.32621734
C           9.50720508       19.87688488       10.22065126
C           9.75700202       18.53994163       10.21407422
C          11.09986919       18.13859321       10.20628341
C          11.71142003       16.75858678       10.11295704
N          13.11535282       17.00843361       10.04551717
N          11.06207281       15.60446686       10.07115849
C          17.91658063       17.85232979        9.01390429
C          19.76783995       19.35456007        8.63302785
C          18.91539513       20.36998869        9.05350864
C          17.53635094       20.16990921        9.44501817
C          17.02375599       18.87011248        9.44720872
C          15.72509892       18.29150157        9.71712511
N          15.80530876       16.94845517        9.44976677
N          14.62379588       18.96127659       10.11402773
H          13.76129160       16.21214707       10.04237725
H          14.89951363       14.52623202        9.72219762
H          10.32428963       21.94640145       10.23134595
H          12.64609474       21.20425767       10.39483268
H          16.82965195       20.99359105        9.65209667
H          19.26670686       21.40248783        9.19412929
H          20.87415547       19.50313185        8.53955966
H          19.94284920       17.18323246        8.36691083
H          19.67368249       13.21045032        8.39809052
H          20.35230901       10.91391466        8.81055569
H          18.44979251        9.06419755        9.34917290
H          16.14720108        9.87982546        9.54148133
H          12.13798783       10.05811220       10.36899905
H           9.68030124        9.46663726        9.96989516
H           8.00275890       11.31946018       10.01258958
H           8.74001032       13.78554348       10.05120174
H           8.92829367       17.80107385       10.12040708
H           8.44880075       20.29970247       10.18833632
C          10.24474766       11.73293501       13.21188966
C           8.53285899        9.99501464       13.33603911
C           9.53211905        8.98209897       13.37153794
C          10.89147336        9.37893847       13.46892686
C          11.23226376       10.76218471       13.31550531
C          12.54887552       11.44725777       13.28030749
N          12.31897404       12.81261151       13.05353051
N          13.77321396       10.89785234       13.27895206
N          17.24338026       14.20083885       12.18919739
C          14.90551169       11.50937839       12.93198414
C          16.24324678       10.86827347       12.91023594
C          16.53137090        9.51015580       13.12368778
C          17.92710518        9.15416173       13.13064898
C          18.92540446       10.05879569       12.80418960
C          18.59484523       11.39712994       12.42506130
C          17.24551018       11.79440198       12.55646509
C          16.57990208       13.09616062       12.50841214
N          15.20680422       12.91455850       12.71733154
C          10.96150788       13.04054698       13.06160906
C           8.84272665       11.34923932       13.18880759
C          16.72354195       15.45042282       12.40122325
C          18.71047136       17.05453458       12.10701078
C          12.78014431       16.99437456       13.12450634
C          11.50905028       17.68660640       13.31138524
C          11.27332393       19.04595663       13.52636391
C           9.93555275       19.47264192       13.66506590
C           8.83121469       18.55291682       13.42955282
C           9.11128650       17.22669678       13.17307939
C          10.46661118       16.75875394       13.13273760
C          11.04555968       15.41413407       13.05687158
N          12.41424298       15.66841331       12.99077325
N          10.39088752       14.24791874       12.98722161
C          17.38081812       16.70604961       12.48906273
C          19.07613083       18.41345090       12.23455252
C          18.10109622       19.37090472       12.62330361
C          16.74064946       19.03073521       12.93430942
C          16.41838326       17.68153155       12.88068058
C          15.17304165       16.99444377       12.84003630
N          15.31356576       15.59789899       12.62490075
N          13.95332906       17.55506183       13.11545409
H          13.10314173       14.91913979       12.90098498
H          14.55810127       13.65039155       12.43854992
H           9.65383000       20.53548799       13.80414892
H          12.09363992       19.82574387       13.60526971
H          16.01499084       19.83516622       13.02643336
H          18.32768832       20.44068061       12.68859008
H          20.05528899       18.73710200       11.91015879
H          19.42470256       16.36341423       11.67680301
H          19.45870571       12.01118271       12.15118622
H          19.98687349        9.75676651       12.78246640
H          18.15412750        8.07441316       13.15794986
H          15.76074859        8.76490202       13.39001948
H          11.62665306        8.56888489       13.56834326
H           9.27381649        7.91713923       13.49935026
H           7.48759004        9.70127377       13.37016715
H           8.10529035       12.17482800       13.22540696
H           8.35083474       16.50386380       12.87773982
H           7.81227349       18.95195955       13.53590053
C          13.23322947       14.06007620       22.21874343
C          14.62587934       13.89635783       22.48460083
C          15.40371626       15.06024716       22.35009169
C          14.92040061       16.35170862       21.99754232
C          13.56221111       16.44583962       21.58178420
C          12.73666079       15.29002594       21.72701730
C          12.76747248       12.79418671       21.55269893
C          13.94897382       11.82491980       21.38944279
C          15.05716128       12.58736988       21.95620296
C          16.34645698       12.37816310       21.36591534
C          16.75893559       14.90329194       21.71056243
C          15.88626373       16.95470924       20.96935559
C          15.43623794       17.68440997       19.87841259
C          14.02196696       17.86164952       19.58153835
C          13.09245080       17.26006534       20.42963331
C          11.89161093       16.57517457       19.89286998
C          11.76390493       15.33876239       20.64649304
C          11.35425656       14.11978300       20.07411272
C          11.80718651       12.82415344       20.53951197
C          14.09045066       11.04473926       20.25153143
C          13.08340000       11.08429248       19.17657828
C          11.91038772       11.92916355       19.26939287
C          11.48282594       12.70468597       18.07100980
C          11.13113635       14.06128246       18.59421088
C          11.30726526       15.23600322       17.90585783
C          11.72566819       16.49019775       18.49607029
C          12.70005074       17.14768006       17.62762376
C          13.81679850       17.85559777       18.17244256
C          16.98782311       16.09431161       20.89902775
C          16.45383760       15.99431227       16.28709763
C          17.44713350       15.92568675       17.33149710
C          18.04316511       14.58937216       17.81204948
C          17.59537758       13.44419734       17.16798495
C          16.57393551       13.55445025       16.11696779
C          14.65979903       14.88446202       15.42056970
C          14.09371704       16.18076923       15.81923587
C          15.31504372       16.85085371       16.43737777
C          15.14441291       17.66172758       17.57500885
C          16.12695785       17.57790080       18.61513310
C          17.18016589       16.68282859       18.50092417
C          18.08933451       14.64912851       19.20210815
C          17.87280562       13.48965313       19.94210214
C          17.49341716       12.23622580       19.32442366
C          17.31811889       12.20302416       17.91399425
C          16.14167677       11.55165764       17.34092657
C          15.69587938       12.35105206       16.21365828
C          14.33741299       12.48105061       16.00204439
C          13.81318909       13.79238304       15.60323528
C          12.87554910       16.33339174       16.42825848
C          11.97457158       15.12220919       16.60485651
C          12.40077019       13.86590459       16.10603703
C          12.19251420       12.63484613       16.86126152
C          13.34540849       11.75897932       16.74756417
C          13.82588552       10.99481951       17.87808790
C          15.23631116       10.94366921       18.20715401
C          15.41490004       10.91826008       19.62227008
C          16.53448125       11.54757338       20.19242065
C          17.65054380       15.95258499       19.67077044
C          17.19957569       13.59348528       21.18816999
C          16.04199500       14.75144066       15.68464094
176
MD Time 1570.97
C          10.83846279       13.18180126       10.09273155
C           9.06908377       11.54611159       10.05741682
C           9.95904889       10.52077398       10.03128612
C          11.34929949       10.81662137       10.15247626
C          11.75540235       12.14263507       10.12690983
C          13.08316861       12.70370604       10.05245724
N          12.99564813       14.15895027        9.97281938
N          14.20230732       12.03929740        9.87538624
N          17.65947862       15.38246533        8.91314570
C          15.38951724       12.56668342        9.47528684
C          16.60093700       11.89852934        9.16568278
C          16.98151633       10.54277151        9.25754582
C          18.29259879       10.11186477        9.16501583
C          19.25001029       11.12533884        8.79236754
C          18.92776102       12.48419060        8.68854954
C          17.56918052       12.91732621        8.83952873
C          16.99339881       14.23300452        9.08061018
N          15.65175075       13.96556169        9.42011507
C          11.61168204       14.39896243       10.09475409
C           9.49702863       12.92283154       10.03381999
C          17.10934149       16.61029625        9.04262069
C          19.28566453       18.05120644        8.64481059
C          13.40537778       18.40653546       10.15394969
C          12.14143845       19.11397681       10.21725067
C          11.81973032       20.47806811       10.31565915
C          10.51488385       20.87207522       10.33016757
C           9.50839755       19.87309684       10.22114217
C           9.75501996       18.54066926       10.21553138
C          11.09973900       18.14368382       10.20256560
C          11.71118226       16.75772585       10.11279459
N          13.11421843       17.00975527       10.04607604
N          11.06496131       15.60303702       10.06764220
C          17.91787832       17.85252709        9.01327232
C          19.76813608       19.35541122        8.63398121
C          18.91535625       20.36828788        9.05167314
C          17.53631886       20.17423573        9.44384816
C          17.02382801       18.87166095        9.44716017
C          15.72404805       18.28984223        9.71504388
N          15.80269302       16.94965810        9.44861556
N          14.62227130       18.96256777       10.11561785
H          13.75701064       16.20853716       10.04917804
H          14.89436969       14.53236358        9.73124801
H          10.31616717       21.94767440       10.23425976
H          12.64893947       21.21214667       10.38551274
H          16.83045311       20.99130621        9.65926290
H          19.27311220       21.40005319        9.19308776
H          20.87248535       19.49261468        8.52185521
H          19.94582924       17.17350818        8.37243205
H          19.65875224       13.20668075        8.39597062
H          20.36131326       10.90346793        8.80864446
H          18.45358374        9.06414579        9.34566088
H          16.14644743        9.88739515        9.54550324
H          12.14174450       10.05030262       10.37113323
H           9.68467620        9.47518635        9.98028255
H           8.01222341       11.31326791       10.00321753
H           8.72589658       13.79251733       10.05062548
H           8.91590135       17.80723299       10.11239324
H           8.45969831       20.30129899       10.18687029
C          10.24662840       11.73502710       13.21338355
C           8.53101287        9.99795161       13.33579875
C           9.53277169        8.98573007       13.36687785
C          10.89280160        9.38364510       13.46671686
C          11.23010761       10.76453088       13.31569459
C          12.54741168       11.44663181       13.27936242
N          12.31806922       12.81178432       13.04772995
N          13.77233169       10.89900779       13.28084015
N          17.24184425       14.20349601       12.18959905
C          14.90714843       11.50774985       12.93253412
C          16.24742124       10.86724428       12.90677456
C          16.53029345        9.50653684       13.12139141
C          17.92242304        9.15164832       13.13625132
C          18.92336146       10.05992825       12.80062926
C          18.59511981       11.39744797       12.42569175
C          17.24838526       11.79379360       12.55769636
C          16.57924508       13.09637203       12.50664449
N          15.20636032       12.91357107       12.71648986
C          10.96161720       13.04199668       13.06231332
C           8.84113140       11.35138466       13.18798808
C          16.72086828       15.44833288       12.40285161
C          18.71014429       17.05416184       12.11002184
C          12.77879691       16.99322735       13.12715332
C          11.50966750       17.68696254       13.31306891
C          11.27218963       19.04755451       13.52524248
C           9.93722080       19.47338700       13.66675255
C           8.83262050       18.55379699       13.43154454
C           9.10902182       17.22184807       13.17426616
C          10.46454776       16.75697671       13.12933142
C          11.04609809       15.41309939       13.05811360
N          12.41629913       15.66589807       12.99097743
N          10.39643223       14.24695472       12.98774116
C          17.37942184       16.70527750       12.49215587
C          19.08028223       18.41585903       12.23776337
C          18.10023780       19.37352135       12.62403272
C          16.74178469       19.03137783       12.93313825
C          16.41703086       17.68221123       12.88052460
C          15.17420817       16.99134452       12.83980891
N          15.31434479       15.59750524       12.62502806
N          13.95192665       17.55244580       13.11768788
H          13.10261536       14.92816162       12.90538514
H          14.55406820       13.65290206       12.44061391
H           9.66045534       20.53915360       13.78709044
H          12.10217277       19.82328050       13.62368113
H          16.01167594       19.83249491       13.02578152
H          18.32889391       20.44372950       12.69228333
H          20.05909780       18.74475473       11.91936923
H          19.42006331       16.37401374       11.68583441
H          19.45937372       12.00048417       12.14736215
H          19.99383287        9.75142296       12.79305597
H          18.15924801        8.08560629       13.16427656
H          15.75925482        8.76143786       13.39093486
H          11.63289650        8.57293088       13.56312644
H           9.28801016        7.93205909       13.50419409
H           7.49228491        9.69662929       13.35705803
H           8.10034951       12.16922470       13.22218100
H           8.34621496       16.50126165       12.87837935
H           7.81280367       18.95423850       13.53723109
C          13.23157440       14.06002835       22.21911852
C          14.62281415       13.89893192       22.48570173
C          15.40316282       15.05985609       22.34832281
C          14.91575559       16.34679016       21.99588487
C          13.55951040       16.44432090       21.58169642
C          12.73873819       15.28661722       21.73124701
C          12.76970018       12.79553905       21.55396573
C          13.95023220       11.82445526       21.38930068
C          15.05811469       12.58959438       21.95584808
C          16.34075044       12.37757720       21.36806394
C          16.75879056       14.90278092       21.70927757
C          15.88414638       16.95218592       20.96734998
C          15.44064219       17.68060276       19.88270701
C          14.02487988       17.86273417       19.58579918
C          13.09085513       17.25742667       20.43261184
C          11.88646101       16.57332555       19.88950959
C          11.76565653       15.33958621       20.65124892
C          11.35413053       14.12218767       20.07567823
C          11.80588442       12.82307819       20.54366780
C          14.09194863       11.04598038       20.24921406
C          13.08280337       11.08424848       19.17376965
C          11.90977543       11.92741988       19.27201651
C          11.47855178       12.70478567       18.06865047
C          11.13538452       14.06130888       18.59582226
C          11.30126952       15.23395917       17.90698001
C          11.72762013       16.48854253       18.49521674
C          12.69644196       17.14972111       17.63060290
C          13.81979346       17.85659345       18.17670191
C          16.98539438       16.09422885       20.90076555
C          16.45252264       15.99814604       16.28805100
C          17.45012394       15.92410569       17.33461023
C          18.04210992       14.59648124       17.81253392
C          17.59570374       13.44445244       17.17129040
C          16.57713131       13.55629713       16.11453897
C          14.65657299       14.88352638       15.41862203
C          14.09595892       16.18432507       15.82025852
C          15.31335658       16.85141514       16.43858951
C          15.14832640       17.66270522       17.57773004
C          16.12676178       17.57797735       18.61615039
C          17.18227503       16.68274191       18.50341025
C          18.09218675       14.64993634       19.20558032
C          17.87254592       13.48965333       19.94184168
C          17.49752953       12.23582825       19.32748874
C          17.31934351       12.20105164       17.91358612
C          16.14756985       11.55031587       17.33860177
C          15.69844482       12.34995752       16.20995924
C          14.33845609       12.47793354       16.00072125
C          13.81598204       13.79441687       15.60252540
C          12.87660582       16.32958009       16.43036000
C          11.97465604       15.11956648       16.60685996
C          12.39767556       13.87172371       16.10605772
C          12.19319111       12.63883178       16.85860117
C          13.34901355       11.76134543       16.74748712
C          13.82526462       10.99602414       17.87603370
C          15.23146135       10.94154187       18.20704008
C          15.41615890       10.91710811       19.62388216
C          16.53649023       11.55086403       20.18900918
C          17.65426076       15.94995453       19.67069565
C          17.19737428       13.59647099       21.18965663
C          16.04329360       14.75099297       15.68551616
176
MD Time 1591.64
C          10.83825562       13.18319388       10.09253518
C           9.06936187       11.54710449       10.05346390
C           9.96306281       10.52172096       10.02772748
C          11.35169899       10.81619676       10.15449580
C          11.75710032       12.14265618       10.12647172
C          13.08088833       12.70413085       10.05074238
N          12.99602941       14.15887103        9.97306258
N          14.20062567       12.04295139        9.87446860
N          17.65804491       15.38659934        8.90781619
C          15.38921073       12.56804550        9.47455098
C          16.60100478       11.89799922        9.16594043
C          16.97863839       10.54346667        9.25633720
C          18.29066630       10.11090618        9.16358798
C          19.25133237       11.12182594        8.78891787
C          18.92787565       12.48483402        8.68799217
C          17.57263598       12.91695478        8.83347883
C          16.99365406       14.23225996        9.07411235
N          15.65078222       13.96552731        9.41713733
C          11.61072443       14.40118566       10.09350954
C           9.49911668       12.92274545       10.02841484
C          17.11083834       16.61226641        9.04145222
C          19.28657343       18.05077379        8.64563942
C          13.40264845       18.40368025       10.15640612
C          12.14419984       19.11357138       10.21831491
C          11.82096176       20.48032282       10.31773237
C          10.51919591       20.87188555       10.33397243
C           9.50916749       19.87000447       10.22170062
C           9.75298457       18.54096268       10.21688636
C          11.09969262       18.14844131       10.19878863
C          11.71103948       16.75731643       10.11256514
N          13.11283378       17.01109106       10.04670998
N          11.06769576       15.60185896       10.06420712
C          17.91928796       17.85250614        9.01258565
C          19.76867457       19.35617543        8.63510317
C          18.91498697       20.36693758        9.05001614
C          17.53636590       20.17853886        9.44258550
C          17.02425972       18.87347312        9.44698368
C          15.72309226       18.28804431        9.71292294
N          15.80003826       16.95057397        9.44744287
N          14.62067366       18.96390232       10.11712009
H          13.75365027       16.20618248       10.05543280
H          14.88732002       14.54212226        9.74050008
H          10.30704543       21.94839478       10.23802017
H          12.65092454       21.21926755       10.37583984
H          16.83261312       20.98929353        9.66683535
H          19.27991458       21.39719493        9.19121811
H          20.86872437       19.48283778        8.50349217
H          19.94672673       17.16580620        8.37857558
H          19.64567964       13.20430048        8.39393245
H          20.36750745       10.89274580        8.80592719
H          18.45925491        9.06294596        9.34213032
H          16.14647631        9.89424563        9.54939849
H          12.14348878       10.04339864       10.37173673
H           9.68806446        9.48306936        9.99101246
H           8.02067297       11.30735533        9.99388251
H           8.71492207       13.79582916       10.04989370
H           8.90544331       17.81439149       10.10491036
H           8.47266704       20.30087491       10.18537901
C          10.24805061       11.73726583       13.21474453
C           8.52918286       10.00080827       13.33543721
C           9.53358547        8.98960639       13.36240326
C          10.89404873        9.38833254       13.46435012
C          11.22818591       10.76646057       13.31605805
C          12.54582928       11.44624320       13.27826268
N          12.31728249       12.81093545       13.04200503
N          13.77148516       10.90009726       13.28261930
N          17.24042458       14.20638864       12.19015762
C          14.90902359       11.50634143       12.93322348
C          16.25128626       10.86596075       12.90332289
C          16.52949121        9.50291344       13.11921828
C          17.91740165        9.14895428       13.14170003
C          18.92139959       10.06127092       12.79697278
C          18.59547178       11.39756453       12.42651704
C          17.25125495       11.79331434       12.55894681
C          16.57867393       13.09650130       12.50462509
N          15.20592521       12.91236235       12.71558612
C          10.96174644       13.04323071       13.06303477
C           8.83992276       11.35376555       13.18733964
C          16.71773297       15.44582898       12.40444360
C          18.70959703       17.05403987       12.11320782
C          12.77719006       16.99206119       13.12987012
C          11.51038049       17.68740921       13.31468299
C          11.27106621       19.04948993       13.52423584
C           9.93869254       19.47407307       13.66827680
C           8.83427916       18.55490848       13.43368776
C           9.10690459       17.21673654       13.17533000
C          10.46218443       16.75525919       13.12608847
C          11.04659191       15.41221479       13.05921017
N          12.41846614       15.66317103       12.99118873
N          10.40186924       14.24612906       12.98835920
C          17.37849367       16.70459996       12.49510606
C          19.08416815       18.41826204       12.24100139
C          18.09927187       19.37615324       12.62484761
C          16.74323364       19.03207782       12.93182510
C          16.41577391       17.68290632       12.88017585
C          15.17474756       16.98793926       12.83981727
N          15.31533765       15.59738217       12.62510249
N          13.95090940       17.55000197       13.11986497
H          13.10259966       14.93614533       12.90979168
H          14.54989391       13.65526504       12.44406875
H           9.66806077       20.54186905       13.77041401
H          12.10871355       19.81780884       13.64165128
H          16.00774914       19.82957395       13.02587024
H          18.33090543       20.44648996       12.69551820
H          20.06388400       18.75275886       11.92851445
H          19.41606438       16.38258433       11.69449016
H          19.45893627       11.99142610       12.14324485
H          19.99916694        9.74633396       12.80341222
H          18.16475247        8.09661572       13.17194416
H          15.75823277        8.75902185       13.39119975
H          11.63955388        8.57828127       13.55792558
H           9.30172489        7.94684448       13.50870528
H           7.49583592        9.69170883       13.34398898
H           8.09555389       12.16252820       13.21833064
H           8.34084777       16.49852953       12.87977982
H           7.81372950       18.95582756       13.53793776
C          13.22969924       14.05966133       22.21923505
C          14.61981478       13.90152059       22.48674829
C          15.40316569       15.05920499       22.34652539
C          14.91094391       16.34213770       21.99370214
C          13.55695362       16.44292775       21.58175073
C          12.74063265       15.28320301       21.73546385
C          12.77206562       12.79671030       21.55517829
C          13.95120326       11.82453067       21.38944417
C          15.05934031       12.59161887       21.95542083
C          16.33501618       12.37739910       21.37035338
C          16.75859395       14.90191892       21.70791002
C          15.88168499       16.94975786       20.96586353
C          15.44504205       17.67691711       19.88698441
C          14.02766778       17.86379855       19.59035698
C          13.08913882       17.25462919       20.43571861
C          11.88160140       16.57143818       19.88617641
C          11.76722236       15.34018571       20.65607959
C          11.35384955       14.12458013       20.07699575
C          11.80465491       12.82195926       20.54745342
C          14.09344787       11.04718145       20.24674903
C          13.08205388       11.08437064       19.17083804
C          11.90950192       11.92572903       19.27477932
C          11.47435188       12.70506198       18.06669648
C          11.13952767       14.06109964       18.59783410
C          11.29539367       15.23201576       17.90765012
C          11.72962654       16.48697052       18.49446765
C          12.69295762       17.15185865       17.63354449
C          13.82270233       17.85741560       18.18071481
C          16.98328917       16.09382031       20.90236961
C          16.45161124       16.00188869       16.28929570
C          17.45297670       15.92230844       17.33751750
C          18.04080777       14.60393106       17.81246822
C          17.59588809       13.44454725       17.17446602
C          16.58036300       13.55772912       16.11212216
C          14.65277927       14.88245891       15.41659331
C          14.09889396       16.18793670       15.82142251
C          15.31137054       16.85213809       16.43971938
C          15.15214392       17.66367604       17.58021722
C          16.12655963       17.57808326       18.61724629
C          17.18466450       16.68274419       18.50605157
C          18.09523811       14.65079641       19.20930791
C          17.87235253       13.48964294       19.94169184
C          17.50156763       12.23534162       19.33030500
C          17.32063859       12.19921119       17.91332590
C          16.15362484       11.54903506       17.33632359
C          15.70122268       12.34897660       16.20634206
C          14.33944650       12.47503095       15.99912676
C          13.81849751       13.79619460       15.60174163
C          12.87726820       16.32552847       16.43260843
C          11.97487718       15.11705160       16.60874657
C          12.39495090       13.87766491       16.10609317
C          12.19371912       12.64279528       16.85605860
C          13.35274390       11.76358891       16.74768159
C          13.82428746       10.99739923       17.87404911
C          15.22659251       10.93929781       18.20662794
C          15.41737169       10.91598261       19.62564115
C          16.53844929       11.55420209       20.18562695
C          17.65796194       15.94733920       19.67062999
C          17.19487533       13.59970898       21.19156849
C          16.04469312       14.75073161       15.68637181
176
MD Time 1612.31
C          10.83805771       13.18467462       10.09228296
C           9.06945082       11.54855046       10.04935033
C           9.96759871       10.52253408       10.02427642
C          11.35421355       10.81556945       10.15656257
C          11.75892380       12.14238219       10.12605371
C          13.07864900       12.70505774       10.04894018
N          12.99622917       14.15852126        9.97344024
N          14.19921934       12.04640265        9.87342315
N          17.65649632       15.39074832        8.90246938
C          15.38865296       12.56960936        9.47399106
C          16.60136378       11.89754945        9.16607815
C          16.97543380       10.54418187        9.25525491
C          18.28871276       10.11030582        9.16198482
C          19.25296002       11.11818390        8.78568307
C          18.92761242       12.48536403        8.68735281
C          17.57625867       12.91633137        8.82765601
C          16.99382901       14.23142351        9.06747704
N          15.64989798       13.96527027        9.41412964
C          11.61011278       14.40344845       10.09204884
C           9.50057163       12.92275455       10.02312285
C          17.11231708       16.61439462        9.04047542
C          19.28729822       18.05001316        8.64644123
C          13.40012920       18.40067283       10.15881682
C          12.14684984       19.11304380       10.21948908
C          11.82274101       20.48260126       10.31982734
C          10.52328799       20.87170907       10.33762685
C           9.50957640       19.86764835       10.22233679
C           9.75089180       18.54079984       10.21812299
C          11.09972647       18.15282020       10.19496561
C          11.71098156       16.75738063       10.11226194
N          13.11120774       17.01241198       10.04742249
N          11.07025656       15.60096740       10.06085521
C          17.92079334       17.85228711        9.01185392
C          19.76943995       19.35681006        8.63637148
C          18.91430155       20.36596789        9.04854162
C          17.53649880       20.18276537        9.44123429
C          17.02505085       18.87554499        9.44667269
C          15.72221993       18.28614178        9.71077513
N          15.79736032       16.95119653        9.44624245
N          14.61900555       18.96526183       10.11853031
H          13.75113931       16.20524674       10.06111169
H          14.87949779       14.55450251        9.74942487
H          10.29712122       21.94830836       10.24264363
H          12.65190552       21.22542321       10.36589157
H          16.83596356       20.98784435        9.67481607
H          19.28702218       21.39388899        9.18851214
H          20.86309364       19.47400464        8.48460584
H          19.94542310       17.16040730        8.38534925
H          19.63527514       13.20395718        8.39171445
H          20.37049708       10.88192082        8.80239556
H          18.46667649        9.06068937        9.33858433
H          16.14702342        9.90011293        9.55323542
H          12.14308389       10.03764960       10.37079742
H           9.69031391        9.48967046       10.00199000
H           8.02755762       11.30169554        9.98458547
H           8.70757000       13.79512233       10.04894307
H           8.89717437       17.82253776       10.09802499
H           8.48704245       20.29863138       10.18385503
C          10.24897280       11.73965768       13.21597262
C           8.52740781       10.00357429       13.33494156
C           9.53459154        8.99380536       13.35811736
C          10.89521410        9.39297652       13.46182636
C          11.22652077       10.76798104       13.31659451
C          12.54414198       11.44610230       13.27700448
N          12.31662210       12.81006408       13.03636157
N          13.77068454       10.90111735       13.28428667
N          17.23912178       14.20948240       12.19087251
C          14.91112509       11.50515299       12.93404787
C          16.25481486       10.86441661       12.89989238
C          16.52895264        9.49929578       13.11717513
C          17.91209387        9.14618355       13.14696610
C          18.91953086       10.06276183       12.79326009
C          18.59590439       11.39745853       12.42752976
C          17.25409090       11.79298356       12.56020754
C          16.57819502       13.09654599       12.50235939
N          15.20549106       12.91094941       12.71461404
C          10.96191392       13.04422400       13.06376780
C           8.83911878       11.35636085       13.18686288
C          16.71416226       15.44295489       12.40599834
C          18.70879507       17.05424100       12.11660028
C          12.77533938       16.99087147       13.13265342
C          11.51115464       17.68793268       13.31621979
C          11.26999649       19.05173585       13.52336306
C           9.93995889       19.47470091       13.66962190
C           8.83618449       18.55621073       13.43597238
C           9.10492806       17.21141566       13.17627732
C          10.45955552       16.75360944       13.12302075
C          11.04705642       15.41148069       13.06015268
N          12.42067633       15.66031019       12.99141953
N          10.40716922       14.24545898       12.98907599
C          17.37803269       16.70401811       12.49790860
C          19.08775618       18.42065295       12.24427361
C          18.09822845       19.37879438       12.62574407
C          16.74496698       19.03283568       12.93037513
C          16.41462452       17.68360536       12.87963409
C          15.17464107       16.98425848       12.84006874
N          15.31652756       15.59751858       12.62512670
N          13.95028747       17.54772866       13.12198369
H          13.10378515       14.94226971       12.91409928
H          14.54582428       13.65719497       12.44899135
H           9.67652969       20.54370812       13.75425604
H          12.11307793       19.80933910       13.65900356
H          16.00331820       19.82638961       13.02667455
H          18.33365533       20.44890330       12.69829046
H          20.06958760       18.76100397       11.93758437
H          19.41332176       16.38845969       11.70239754
H          19.45766394       11.98429924       12.13875992
H          20.00229137        9.74172981       12.81342821
H          18.17073533        8.10651594       13.18101446
H          15.75763927        8.75768100       13.39079140
H          11.64642206        8.58507124       13.55273754
H           9.31459894        7.96045784       13.51293875
H           7.49795437        9.68652166       13.33101921
H           8.09077028       12.15506968       13.21386748
H           8.33479125       16.49570598       12.88196297
H           7.81510441       18.95671596       13.53803086
C          13.22762787       14.05895433       22.21911403
C          14.61690706       13.90410602       22.48773911
C          15.40370572       15.05828819       22.34470950
C          14.90599705       16.33777426       21.99099265
C          13.55454030       16.44164914       21.58196029
C          12.74230602       15.27982787       21.73963864
C          12.77455027       12.79768503       21.55632510
C          13.95188506       11.82514362       21.38986348
C          15.06079026       12.59344011       21.95493476
C          16.32932152       12.37764074       21.37274539
C          16.75833405       14.90072293       21.70647226
C          15.87889952       16.94739434       20.96494419
C          15.44939039       17.67339416       19.89118836
C          14.03031048       17.86482519       19.59521682
C          13.08730938       17.25169462       20.43891389
C          11.87707094       16.56952240       19.88293295
C          11.76857817       15.34054637       20.66095406
C          11.35342648       14.12693288       20.07808546
C          11.80350018       12.82080847       20.55085610
C          14.09493445       11.04834994       20.24415911
C          13.08115520       11.08466079       19.16780748
C          11.90955756       11.92410421       19.27765959
C          11.47025425       12.70550446       18.06515526
C          11.14354594       14.06064918       18.60024747
C          11.28966443       15.23020000       17.90785407
C          11.73165678       16.48546722       18.49382160
C          12.68964057       17.15408612       17.63642512
C          13.82550583       17.85805573       18.18448041
C          16.98153980       16.09307576       20.90381113
C          16.45111568       16.00550135       16.29082843
C          17.45565998       15.92033405       17.34020263
C          18.03926828       14.61164263       17.81187371
C          17.59593649       13.44451868       17.17749959
C          16.58363362       13.55872833       16.10973583
C          14.64849972       14.88130049       15.41449493
C          14.10247410       16.19157805       15.82272950
C          15.30910992       16.85302628       16.44077524
C          15.15582658       17.66464355       17.58246552
C          16.12639537       17.57820054       18.61843990
C          17.18732719       16.68284033       18.50883691
C          18.09848943       14.65170326       19.21324615
C          17.87222227       13.48963053       19.94168526
C          17.50552245       12.23476444       19.33284207
C          17.32201974       12.19751869       17.91323156
C          16.15977241       11.54778883       17.33410933
C          15.70421519       12.34810449       16.20281915
C          14.34040602       12.47237270       15.99725259
C          13.82069354       13.79768641       15.60089185
C          12.87754825       16.32127199       16.43501658
C          11.97521773       15.11471390       16.61053018
C          12.39263359       13.88365613       16.10612485
C          12.19409237       12.64672365       16.85365713
C          13.35656057       11.76572139       16.74813720
C          13.82295673       10.99893592       17.87214310
C          15.22178489       10.93696381       18.20590193
C          15.41853477       10.91488684       19.62750535
C          16.54033020       11.55757486       20.18231451
C          17.66161619       15.94477582       19.67062623
C          17.19209166       13.60316299       21.19387860
C          16.04616325       14.75069201       15.68720124
176
MD Time 1632.98
C          10.83789045       13.18622903       10.09197023
C           9.06941786       11.55042316       10.04507055
C           9.97263261       10.52326921       10.02094873
C          11.35684693       10.81473789       10.15866713
C          11.76084589       12.14182711       10.12565726
C          13.07647383       12.70649560       10.04705374
N          12.99624521       14.15790718        9.97395090
N          14.19809796       12.04963931        9.87224903
N          17.65483261       15.39487542        8.89710661
C          15.38784475       12.57137056        9.47360531
C          16.60201208       11.89720170        9.16608573
C          16.97194224       10.54492086        9.25429853
C          18.28675390       10.11004952        9.16020331
C          19.25488041       11.11443145        8.78266686
C          18.92696607       12.48571116        8.68663559
C          17.57999418       12.91545653        8.82207982
C          16.99392898       14.23052174        9.06070718
N          15.64903107       13.96487017        9.41112562
C          11.60986425       14.40571069       10.09037513
C           9.50135536       12.92287168       10.01795137
C          17.11375576       16.61667599        9.03968950
C          19.28784240       18.04892615        8.64722071
C          13.39786009       18.39753923       10.16117719
C          12.14935741       19.11242469       10.22077293
C          11.82509798       20.48489725       10.32193431
C          10.52710480       20.87154897       10.34112685
C           9.50970425       19.86604539       10.22306112
C           9.74874852       18.54017816       10.21922692
C          11.09983438       18.15677969       10.19111016
C          11.71099690       16.75793392       10.11187849
N          13.10935108       17.01369195       10.04821662
N          11.07262612       15.60039586       10.05758831
C          17.92237632       17.85189290        9.01108774
C          19.77040169       19.35727479        8.63776662
C          18.91331972       20.36539910        9.04724989
C          17.53672564       20.18686582        9.43979923
C          17.02619649       18.87786647        9.44622122
C          15.72142011       18.28417070        9.70861362
N          15.79467545       16.95152173        9.44500871
N          14.61727219       18.96662721       10.11984377
H          13.74941211       16.20585573       10.06618545
H          14.87206012       14.56841742        9.75745116
H          10.28660011       21.94722006       10.24813566
H          12.65183438       21.23049785       10.35575883
H          16.84031398       20.98724622        9.68321313
H          19.29434531       21.39016243        9.18497504
H          20.85593176       19.46631408        8.46531566
H          19.94192975       17.15742131        8.39270653
H          19.62812032       13.20609451        8.38913002
H          20.37010386       10.87112937        8.79804995
H          18.47567058        9.05761677        9.33500344
H          16.14780653        9.90474396        9.55708863
H          12.14053095       10.03317874       10.36834676
H           9.69131837        9.49450037       10.01313481
H           8.03244187       11.29627213        9.97532848
H           8.70410042       13.79027930       10.04771504
H           8.89120705       17.83154524       10.09178440
H           8.50195749       20.29488110       10.18228415
C          10.24936430       11.74220449       13.21706904
C           8.52571704       10.00623867       13.33430004
C           9.53581423        8.99839438       13.35402256
C          10.89629791        9.39755621       13.45914626
C          11.22512841       10.76910837       13.31730103
C          12.54236661       11.44621546       13.27558496
N          12.31609456       12.80916978       13.03080574
N          13.76993948       10.90206594       13.28583923
N          17.23793569       14.21273913       12.19174266
C          14.91343736       11.50418165       12.93500295
C          16.25798502       10.86261109       12.89649347
C          16.52866565        9.49569746       13.11526690
C          17.90655617        9.14343581       13.15202101
C          18.91775581       10.06434007       12.78953267
C          18.59642057       11.39711646       12.42872033
C          17.25686274       11.79281608       12.56147031
C          16.57781463       13.09650441       12.49985377
N          15.20505405       12.90934734       12.71356899
C          10.96213588       13.04495592       13.06450637
C           8.83873415       11.35914398       13.18655754
C          16.71018808       15.43976286       12.40751510
C          18.70772181       17.05481859       12.12021944
C          12.77326677       16.98965463       13.13549899
C          11.51195318       17.68852109       13.31767191
C          11.26901257       19.05424920       13.52264066
C           9.94101412       19.47526933       13.67077214
C           8.83833087       18.55765888       13.43838604
C           9.10308239       17.20594090       13.17711555
C          10.45669913       16.75203392       13.12013956
C          11.04750628       15.41089598       13.06093308
N          12.42286938       15.65738597       12.99168076
N          10.41230343       14.24495952       12.98989150
C          17.37802790       16.70353038       12.50056023
C          19.09102417       18.42302879       12.24758383
C          18.09714008       19.38143882       12.62671677
C          16.74694922       19.03365192       12.92879520
C          16.41359334       17.68429489       12.87889919
C          15.17388194       16.98033715       12.84056900
N          15.31789421       15.59789939       12.62510363
N          13.95006217       17.54562271       13.12404323
H          13.10674203       14.94585629       12.91822424
H          14.54206949       13.65844857       12.45542937
H           9.68571889       20.54479963       13.73875287
H          12.11523639       19.79804646       13.67558589
H          15.99852149       19.82291215       13.02816170
H          18.33706872       20.45092695       12.70060139
H          20.07604685       18.76934619       11.94659819
H          19.41227318       16.39117177       11.70929789
H          19.45580405       11.97934143       12.13384876
H          20.00279029        9.73779615       12.82298891
H          18.17728734        8.11445559       13.19154025
H          15.75738095        8.75738200       13.38971104
H          11.65332900        8.59337180       13.54756477
H           9.32631263        7.97194740       13.51695636
H           7.49849289        9.68111625       13.31820172
H           8.08583980       12.14721680       13.20880635
H           8.32812787       16.49284232       12.88495090
H           7.81694268       18.95691666       13.53753050
C          13.22538667       14.05788966       22.21877776
C          14.61411726       13.90666970       22.48867224
C          15.40475776       15.05710426       22.34288492
C          14.90095229       16.33371718       21.98775956
C          13.55226587       16.44047290       21.58233700
C          12.74372130       15.27653521       21.74374282
C          12.77713304       12.79844903       21.55739322
C          13.95227822       11.82628516       21.39054284
C          15.06241140       12.59505822       21.95440678
C          16.32373664       12.37830993       21.37519894
C          16.75799946       14.89921437       21.70497769
C          15.87581649       16.94506235       20.96463570
C          15.45363928       17.67007509       19.89526364
C          14.03278880       17.86579730       19.60037780
C          13.08537608       17.24864607       20.44215866
C          11.87290550       16.56758600       19.87984143
C          11.76970068       15.34065685       20.66584063
C          11.35287464       14.12921741       20.07896958
C          11.80242378       12.81963690       20.55386570
C          14.09639270       11.04949617       20.24147164
C          13.08011358       11.08511933       19.16470383
C          11.90993042       11.92255945       19.28063596
C          11.46628740       12.70610212       18.06403148
C          11.14741970       14.05995930       18.60305601
C          11.28410728       15.22853382       17.90758505
C          11.73367997       16.48401783       18.49327607
C          12.68653089       17.15639502       17.63922087
C          13.82818690       17.85850710       18.18800178
C          16.98017115       16.09199012       20.90506595
C          16.45104165       16.00894671       16.29264178
C          17.45814309       15.91822566       17.34265261
C          18.03750397       14.61953104       17.81077898
C          17.59585607       13.44440512       17.18037901
C          16.58694443       13.55928327       16.10739654
C          14.64382356       14.88009526       15.41233917
C          14.10663869       16.19522187       15.82418260
C          15.30660500       16.85408092       16.44176485
C          15.15933551       17.66561194       17.58447233
C          16.12631318       17.57831072       18.61974911
C          17.19025350       16.68303610       18.51175312
C          18.10194058       14.65265002       19.21734466
C          17.87215127       13.48962507       19.94185388
C          17.50938564       12.23409741       19.33507454
C          17.32350165       12.19598903       17.91331837
C          16.16594400       11.54655204       17.33197363
C          15.70742035       12.34733581       16.19940203
C          14.34135833       12.46998436       15.99509337
C          13.82252921       13.79886366       15.59998355
C          12.87746726       16.31684835       16.43759224
C          11.97565944       15.11260385       16.61222523
C          12.39075788       13.88962086       16.10613483
C          12.19430587       12.65060426       16.85141989
C          13.36042296       11.76775724       16.74884047
C          13.82127902       11.00062375       17.87032470
C          15.21711590       10.93456496       18.20485215
C          15.41964433       10.91382414       19.62943109
C          16.54210463       11.56096976       20.17911258
C          17.66519363       15.94230100       19.67073507
C          17.18904017       13.60679232       21.19655517
C          16.04767345       14.75090365       15.68799835
176
MD Time 1653.65
C          10.83777255       13.18783852       10.09159251
C           9.06932090       11.55268700       10.04062006
C           9.97812668       10.52397114       10.01775918
C          11.35959337       10.81370916       10.16079660
C          11.76283837       12.14101112       10.12528346
C          13.07438784       12.70844635       10.04508669
N          12.99607843       14.15703706        9.97459231
N          14.19726635       12.05265160        9.87094668
N          17.65305424       15.39894314        8.89172999
C          15.38679224       12.57332217        9.47339026
C          16.60294165       11.89697608        9.16595532
C          16.96820624       10.54568464        9.25346713
C          18.28480813       10.11011226        9.15824304
C          19.25706276       11.11059195        8.77987191
C          18.92596103       12.48582987        8.68583582
C          17.58378613       12.91433466        8.81676943
C          16.99395979       14.22958090        9.05380729
N          15.64812467       13.96440397        9.40815658
C          11.60998991       14.40793447       10.08849289
C           9.50145262       12.92309649       10.01290765
C          17.11513260       16.61910210        9.03909290
C          19.28820369       18.04753013        8.64798592
C          13.39587642       18.39430763       10.16348273
C          12.15169425       19.11174488       10.22216549
C          11.82804555       20.48719825       10.32404250
C          10.53059805       20.87140395       10.34446945
C           9.50964737       19.86518855       10.22388421
C           9.74657287       18.53911497       10.22018591
C          11.10000756       18.16028384       10.18723664
C          11.71107247       16.75898481       10.11140868
N          13.10727608       17.01490907       10.04909483
N          11.07478900       15.60017567       10.05440834
C          17.92401691       17.85134889        9.01029868
C          19.77151580       19.35753285        8.63927203
C          18.91206666       20.36524118        9.04613751
C          17.53705411       20.19079656        9.43828621
C          17.02768679       18.88042134        9.44562400
C          15.72068280       18.28216880        9.70645188
N          15.79200044       16.95154798        9.44373686
N          14.61548146       18.96797885       10.12105519
H          13.74841897       16.20808066       10.07062631
H          14.86603496       14.58282849        9.76404106
H          10.27568978       21.94500880       10.25448883
H          12.65076350       21.23446194       10.34554253
H          16.84547145       20.98775802        9.69203380
H          19.30179807       21.38609364        9.18062579
H          20.84767406       19.45995384        8.44572258
H          19.93638827       17.15678376        8.40054895
H          19.62448593       13.21086501        8.38610572
H          20.36636709       10.86046885        8.79290000
H          18.48601340        9.05408939        9.33135119
H          16.14855131        9.90791742        9.56102968
H          12.13596936       10.02997986       10.36445954
H           9.69103595        9.49726235       10.02437715
H           8.03505920       11.29109273        9.96611992
H           8.70455856       13.78140591       10.04615817
H           8.88750783       17.84117565       10.08621318
H           8.51637257       20.29003825       10.18064530
C          10.24920583       11.74490291       13.21803620
C           8.52412873       10.00878938       13.33350187
C           9.53726866        9.00341958       13.35012238
C          10.89730089        9.40205449       13.45631166
C          11.22401882       10.76986770       13.31817278
C          12.54052325       11.44658482       13.27400242
N          12.31570467       12.80825263       13.02534440
N          13.76925898       10.90294203       13.28727382
N          17.23686576       14.21611692       12.19276631
C          14.91594123       11.50342188       12.93608428
C          16.26077964       10.86054929       12.89313576
C          16.52861704        9.49213558       13.11349680
C          17.90085027        9.14079636       13.15683727
C          18.91606411       10.06594694       12.78583267
C          18.59702452       11.39653399       12.43007617
C          17.25953843       11.79282192       12.56272749
C          16.57753876       13.09637551       12.49711588
N          15.20461551       12.90756811       12.71244859
C          10.96242592       13.04541123       13.06524393
C           8.83877862       11.36208510       13.18642250
C          16.70584809       15.43631292       12.40899315
C          18.70638521       17.05580071       12.12407025
C          12.77100023       16.98840838       13.13840157
C          11.51273780       17.68916438       13.31903219
C          11.26813498       19.05697174       13.52208190
C           9.94185594       19.47577552       13.67171312
C           8.84071281       18.55920487       13.44091413
C           9.10135548       17.20036917       13.17785305
C          10.45365646       16.75053761       13.11745559
C          11.04795504       15.41045810       13.06154401
N          12.42500089       15.65445257       12.99198102
N          10.41724395       14.24464283       12.99080544
C          17.37845839       16.70313299       12.50305917
C          19.09395920       18.42539001       12.25093281
C          18.09604122       19.38408021       12.62775933
C          16.74913952       19.03452631       12.92709391
C          16.41268932       17.68495979       12.87797135
C          15.17247549       16.97621478       12.84132191
N          15.31941363       15.59850559       12.62503646
N          13.95022603       17.54367963       13.12604345
H          13.11180798       14.94648455       12.92211479
H          14.53878765       13.65884275       12.46339322
H           9.69546199       20.54531834       13.72403830
H          12.11531809       19.78426641       13.69127942
H          15.99351997       19.81910421       13.03029181
H          18.34106508       20.45253844       12.70245780
H          20.08301402       18.77761350       11.95559720
H          19.41310191       16.39052151       11.71508848
H          19.45355526       11.97671956       12.12847850
H          20.00042941        9.73466748       12.83197734
H          18.18446735        8.11976561       13.20356035
H          15.75731873        8.75803481       13.38798352
H          11.66014134        8.60318142       13.54241578
H           9.33661362        7.98057331       13.52080544
H           7.49746177        9.67558659       13.30558818
H           8.08059962       12.13934754       13.20316437
H           8.32096160       16.48999979       12.88876437
H           7.81921970       18.95646567       13.53646609
C          13.22300415       14.05645385       22.21824955
C          14.61147185       13.90919232       22.48954524
C          15.40629064       15.05565635       22.34106110
C          14.89585295       16.32997799       21.98401121
C          13.55012177       16.43938613       21.58289120
C          12.74484311       15.27336647       21.74774881
C          12.77979017       12.79898943       21.55836840
C          13.95238595       11.82793986       21.39146090
C          15.06414585       12.59647643       21.95385694
C          16.31833414       12.37941025       21.37767073
C          16.75757925       14.89741932       21.70344080
C          15.87246846       16.94272801       20.96497593
C          15.45774079       17.66700016       19.89915783
C          14.03508458       17.86669897       19.60583236
C          13.08334984       17.24550789       20.44541491
C          11.86913781       16.56563491       19.87696285
C          11.77056792       15.34050910       20.67070689
C          11.35220769       14.13140427       20.07967195
C          11.80143060       12.81845478       20.55647454
C          14.09780536       11.05063279       20.23871804
C          13.07893793       11.08574520       19.16155476
C          11.91060611       11.92110964       19.28368726
C          11.46248030       12.70684347       18.06332722
C          11.15112940       14.05903946       18.60624539
C          11.27874664       15.22703369       17.90684395
C          11.73566536       16.48260793       18.49282771
C          12.68366573       17.15877473       17.64190772
C          13.83073046       17.85876470       18.19128548
C          16.97920031       16.09056371       20.90611489
C          16.45138819       16.01218947       16.29472446
C          17.46039638       15.91603065       17.34485731
C          18.03553070       14.62750551       17.80921954
C          17.59565507       13.44424561       17.18309206
C          16.59029436       13.55938926       16.10511883
C          14.63884569       14.87888981       15.41013925
C          14.11131514       16.19883937       15.82578563
C          15.30389212       16.85530071       16.44269592
C          15.16263239       17.66658581       17.58623748
C          16.12635632       17.57839530       18.62118998
C          17.19343131       16.68333788       18.51478525
C          18.10558994       14.65362848       19.22154859
C          17.87213529       13.48963583       19.94222798
C          17.51314923       12.23334352       19.33698220
C          17.32509763       12.19463592       17.91359863
C          16.17207245       11.54530142       17.32992864
C          15.71083179       12.34666474       16.19610156
C          14.34232802       12.46788715       15.99264719
C          13.82396545       13.79969952       15.59902381
C          12.87705506       16.31229813       16.44033814
C          11.97618346       15.11077189       16.61384616
C          12.38935447       13.89547919       16.10610614
C          12.19435575       12.65442467       16.84936963
C          13.36428914       11.76971322       16.74977474
C          13.81926520       11.00245058       17.86860310
C          15.21265920       10.93212471       18.20347433
C          15.42069642       10.91279807       19.63137343
C          16.54374453       11.56437406       20.17606151
C          17.66866600       15.93995074       19.67100415
C          17.18574195       13.61055156       21.19956174
C          16.04919393       14.75138914       15.68875781
176
MD Time 1674.33
C          10.83771902       13.18948069       10.09114546
C           9.06920450       11.55529718       10.03599537
C           9.98402870       10.52466859       10.01472190
C          11.36243777       10.81249933       10.16293491
C          11.76487242       12.13996007       10.12493301
C          13.07241715       12.71090451       10.04304332
N          12.99573261       14.15592137        9.97536130
N          14.19672441       12.05543190        9.86951790
N          17.65116258       15.40291386        8.88634253
C          15.38550696       12.57545465        9.47334070
C          16.60413827       11.89689082        9.16568163
C          16.96426893       10.54646999        9.25275996
C          18.28289581       10.11046131        9.15610584
C          19.25945839       11.10669334        8.77729980
C          18.92465388       12.48570246        8.68493863
C          17.58757649       12.91297436        8.81174341
C          16.99392734       14.22862680        9.04678391
N          15.64713821       13.96394006        9.40524823
C          11.61049444       14.41008510       10.08640806
C           9.50087237       12.92341556       10.00799883
C          17.11642615       16.62166099        9.03868311
C          19.28837424       18.04585806        8.64874798
C          13.39420788       18.39100824       10.16572902
C          12.15383540       19.11103480       10.22366496
C          11.83157835       20.48948543       10.32614044
C          10.53372795       20.87126763       10.34765270
C           9.50951351       19.86504847       10.22481650
C           9.74439421       18.53764702       10.22099015
C          11.10023483       18.16330204       10.18336015
C          11.71119391       16.76053453       10.11084687
N          13.10499625       17.01604659       10.05005881
N          11.07673228       15.60033479       10.05131744
C          17.92569332       17.85068259        9.00949916
C          19.77272760       19.35755229        8.64087414
C          18.91057294       20.36549376        9.04519735
C          17.53748976       20.19452204        9.43670296
C          17.02950678       18.88318749        9.44487679
C          15.71999910       18.28017479        9.70430353
N          15.78935262       16.95127643        9.44242303
N          14.61364381       18.96929685       10.12215883
H          13.74813307       16.21192587       10.07440922
H          14.86224154       14.59682692        9.76873901
H          10.26459320       21.94163685       10.26168158
H          12.64884462       21.23737341       10.33534931
H          16.85126089       20.98958444        9.70127653
H          19.30929941       21.38180834        9.17549668
H          20.83882071       19.45509332        8.42590795
H          19.92906931       17.15825404        8.40872926
H          19.62429833       13.21809081        8.38269912
H          20.35954499       10.84999415        8.78696429
H          18.49744148        9.05054667        9.32758137
H          16.14901867        9.90946553        9.56511677
H          12.12967411       10.02791666       10.35925211
H           9.68950286        9.49789552       10.03565099
H           8.03534803       11.28619974        9.95697876
H           8.70876871       13.76883275       10.04423062
H           8.88589771       17.85108669       10.08131035
H           8.52913882       20.28459259       10.17891158
C          10.24849019       11.74774420       13.21887766
C           8.52264988       10.01121344       13.33253717
C           9.53895885        9.00889596       13.34642328
C          10.89822412        9.40645804       13.45332582
C          11.22319551       10.77029321       13.31920302
C          12.53863507       11.44720814       13.27225645
N          12.31545541       12.80731329       13.01998522
N          13.76865119       10.90374573       13.28858711
N          17.23591121       14.21957053       12.19394082
C          14.91861422       11.50286549       12.93728721
C          16.26318653       10.85824232       12.88982802
C          16.52879173        9.48863036       13.11186632
C          17.89504495        9.13832693       13.16138946
C          18.91443529       10.06752728       12.78220191
C          18.59772271       11.39571711       12.43158121
C          17.26208488       11.79300603       12.56397194
C          16.57737287       13.09615895       12.49415484
N          15.20418244       12.90561985       12.71125297
C          10.96279460       13.04558090       13.06597339
C           8.83925478       11.36515363       13.18645574
C          16.70118549       15.43267174       12.41043161
C          18.70482064       17.05718726       12.12814077
C          12.76857345       16.98713178       13.14135487
C          11.51346941       17.68985414       13.32029371
C          11.26737177       19.05983126       13.52169607
C           9.94248558       19.47621586       13.67243204
C           8.84332427       18.56079852       13.44353996
C           9.09973360       17.19475814       13.17849905
C          10.45047119       16.74912408       13.11497877
C          11.04841494       15.41016307       13.06197897
N          12.42704864       15.65154186       12.99232619
N          10.42196401       14.24451751       12.99181710
C          17.37929371       16.70282039       12.50540506
C          19.09655603       18.42773959       12.25431884
C          18.09496763       19.38671162       12.62886434
C          16.75149270       19.03545714       12.92528153
C          16.41191965       17.68558380       12.87685129
C          15.17043906       16.97193517       12.84232933
N          15.32105818       15.59931431       12.62492864
N          13.95076299       17.54189379       13.12798497
H          13.11900764       14.94407108       12.92575565
H          14.53607413       13.65826644       12.47285213
H           9.70557436       20.54547192       13.71024040
H          12.11361379       19.76848772       13.70600782
H          15.98848727       19.81493022       13.03301860
H          18.34556018       20.45373818       12.70387230
H          20.09018038       18.78561484       11.96463562
H          19.41570175       16.38661137       11.71983919
H          19.45104707       11.97651450       12.12265079
H          19.99516233        9.73242218       12.84028128
H          18.19227115        8.12205662       13.21709246
H          15.75727590        8.75949978       13.38565538
H          11.66676937        8.61442215       13.53730481
H           9.34533557        7.98591918       13.52449572
H           7.49502546        9.67007196       13.29323304
H           8.07490817       12.13182092       13.19696045
H           8.31341349       16.48724557       12.89342048
H           7.82187525       18.95542010       13.53487538
C          13.22051050       14.05463863       22.21755348
C          14.60899701       13.91165392       22.49035517
C          15.40826721       15.05395250       22.33924722
C          14.89074826       16.32656217       21.97976158
C          13.54809557       16.43837567       21.58363125
C          12.74563842       15.27035998       21.75163048
C          12.78249544       12.79929493       21.55923544
C          13.95221422       11.83008593       21.39259124
C          15.06593195       12.59770087       21.95330804
C          16.31318806       12.38094094       21.38011581
C          16.75706309       14.89536858       21.70187722
C          15.86889329       16.94035817       20.96599489
C          15.46164811       17.66420725       19.90282329
C          14.03718089       17.86751537       19.61156599
C          13.08124307       17.24230535       20.44864617
C          11.86579716       16.56367340       19.87435579
C          11.77115953       15.34009868       20.67552001
C          11.35143943       14.13346342       20.08021783
C          11.80052670       12.81727143       20.55867749
C          14.09915398       11.05177434       20.23593297
C          13.07763985       11.08653573       19.15838959
C          11.91156775       11.91977046       19.28679239
C          11.45886210       12.70771647       18.06304209
C          11.15465558       14.05790681       18.60979307
C          11.27360580       15.22571026       17.90563967
C          11.73758279       16.48122395       18.49247278
C          12.68107889       17.16121254       17.64446206
C          13.83312336       17.85882523       18.19434110
C          16.97863619       16.08880229       20.90694414
C          16.45214777       16.01519690       16.29706134
C          17.46239134       15.91380042       17.34680926
C          18.03336801       14.63547004       17.80723728
C          17.59534261       13.44407888       17.18562639
C          16.59367974       13.55904896       16.10291522
C          14.63366455       14.87773215       15.40790931
C          14.11642008       16.20240003       15.82754238
C          15.30101363       16.85668208       16.44357624
C          15.16568024       17.66757009       17.58776359
C          16.12656597       17.57843630       18.62277606
C          17.19684603       16.68375246       18.51791679
C          18.10943412       14.65462920       19.22580012
C          17.87216996       13.48967222       19.94283521
C          17.51680545       12.23250813       19.33855039
C          17.32681909       12.19347172       17.91408140
C          16.17809273       11.54401587       17.32798418
C          15.71443890       12.34608507       16.19292790
C          14.34333972       12.46609772       15.98991588
C          13.82496628       13.80017010       15.59801923
C          12.87634924       16.30766488       16.44325227
C          11.97677075       15.10926675       16.61540681
C          12.38844985       13.90114945       16.10602324
C          12.19423940       12.65817255       16.84752840
C          13.36811663       11.77160825       16.75092006
C          13.81693074       11.00440259       17.86698756
C          15.20848369       10.92966484       18.20176966
C          15.42168696       10.91181252       19.63328701
C          16.54522256       11.56777484       20.17320053
C          17.67200700       15.93775975       19.67147698
C          17.18222222       13.61439050       21.20285753
C          16.05069670       14.75216349       15.68947525
176
MD Time 1695.00
C          10.83774048       13.19112992       10.09062487
C           9.06909789       11.55820026       10.03119369
C           9.99027275       10.52537239       10.01185053
C          11.36535650       10.81113354       10.16506331
C          11.76691955       12.13870479       10.12460617
C          13.07058807       12.71385691       10.04092860
N          12.99521407       14.15457296        9.97625374
N          14.19646709       12.05797498        9.86796590
N          17.64915987       15.40675065        8.88094782
C          15.38400567       12.57775605        9.47344958
C          16.60558170       11.89696194        9.16526198
C          16.96017173       10.54726849        9.25217709
C          18.28103817       10.11105997        9.15379517
C          19.26200107       11.10276796        8.77495083
C          18.92313031       12.48533727        8.68392002
C          17.59130646       12.91138857        8.80701904
C          16.99383730       14.22768458        9.03964541
N          15.64604882       13.96353542        9.40241897
C          11.61137581       14.41213218       10.08412785
C           9.49964982       12.92380112       10.00323145
C          17.11761553       16.62433725        9.03845662
C          19.28834092       18.04395785        8.64952071
C          13.39287775       18.38767304       10.16791189
C          12.15575994       19.11032378       10.22526871
C          11.83567257       20.49173424       10.32821659
C          10.53646479       20.87112848       10.35067593
C           9.50941303       19.86557745       10.22586793
C           9.74225243       18.53582886       10.22163256
C          11.10050290       18.16580972       10.17949635
C          11.71134567       16.76257698       10.11018799
N          13.10252614       17.01709349       10.05110946
N          11.07844595       15.60089659       10.04831776
C          17.92738228       17.84992322        9.00870220
C          19.77397571       19.35730704        8.64256209
C          18.90887411       20.36614662        9.04441868
C          17.53803443       20.19801699        9.43505963
C          17.03163645       18.88613748        9.44397652
C          15.71936131       18.27822755        9.70218203
N          15.78674964       16.95071127        9.44106425
N          14.61177202       18.97056141       10.12314870
H          13.74855344       16.21732222       10.07751307
H          14.86126760       14.60967464        9.77119595
H          10.25350168       21.93715325       10.26967850
H          12.64632193       21.23937418       10.32528624
H          16.85754369       20.99285295        9.71092313
H          19.31677384       21.37747128        9.16963191
H          20.82989315       19.45187600        8.40593474
H          19.92036756       17.16141836        8.41705642
H          19.62716648       13.22728716        8.37908943
H          20.35011336       10.83971319        8.78026867
H          18.50966191        9.04745759        9.32364553
H          16.14902967        9.90929363        9.56938498
H          12.12204794       10.02672633       10.35287844
H           9.68683885        9.49658398       10.04688649
H           8.03346057       11.28167481        9.94793670
H           8.71631509       13.75313045       10.04190313
H           8.88605948       17.86084599       10.07704750
H           8.53910311       20.27906360       10.17705330
C          10.24722252       11.75071449       13.21959820
C           8.52127788       10.01349780       13.33139683
C           9.54087716        9.01480197       13.34293564
C          10.89906906        9.41075748       13.45019343
C          11.22265549       10.77042783       13.32038318
C          12.53672786       11.44807875       13.27034804
N          12.31534794       12.80635312       13.01473635
N          13.76812326       10.90447821       13.28977584
N          17.23507112       14.22305219       12.19526264
C          14.92143087       11.50250162       12.93860678
C          16.26519863       10.85570716       12.88657807
C          16.52917171        9.48520421       13.11037529
C          17.88921726        9.13605954       13.16565576
C          18.91283936       10.06903066       12.77868059
C          18.59852429       11.39468281       12.43321558
C          17.26446888       11.79336816       12.56519703
C          16.57732167       13.09585498       12.49098123
N          15.20376771       12.90350647       12.70998467
C          10.96324906       13.04546284       13.06668718
C           8.84015590       11.36832092       13.18665423
C          16.69624840       15.42891094       12.41182953
C          18.70308886       17.05895164       12.13240381
C          12.76602490       16.98582518       13.14435179
C          11.51410912       17.69058328       13.32144989
C          11.26671790       19.06274357       13.52148782
C           9.94290783       19.47658709       13.67291812
C           8.84615813       18.56238885       13.44624521
C           9.09820211       17.18916523       13.17906368
C          10.44718851       16.74779537       13.11271792
C          11.04889668       15.41000560       13.06223253
N          12.42901437       15.64866197       12.99271954
N          10.42643866       14.24458806       12.99292545
C          17.38049465       16.70258573       12.50759910
C          19.09881519       18.43008209       12.25773856
C          18.09395560       19.38932556       12.63002355
C          16.75396067       19.03644047       12.92336970
C          16.41128963       17.68615016       12.87554045
C          15.16780162       16.96754569       12.84359094
N          15.32279669       15.60029906       12.62478383
N          13.95164870       17.54025851       13.12986924
H          13.12803405       14.93888377       12.92916496
H          14.53395583       13.65668692       12.48373447
H           9.71585988       20.54548427       13.69747790
H          12.11057308       19.75133822       13.71974622
H          15.98359882       19.81036518       13.03629070
H          18.35046798       20.45455052       12.70486330
H          20.09720669       18.79315226       11.97377134
H          19.41969637       16.37982820       11.72377762
H          19.44832818       11.97871163       12.11640761
H          19.98713243        9.73107833       12.84780037
H          18.20060598        8.12127997       13.23212494
H          15.75704998        8.76159858       13.38279126
H          11.67316972        8.62694061       13.53225081
H           9.35240601        7.98795811       13.52798169
H           7.49147987        9.66474938       13.28119569
H           8.06867104       12.12494761       13.19021500
H           8.30561551       16.48464784       12.89893046
H           7.82481990       18.95385481       13.53280322
C          13.21793688       14.05244189       22.21671399
C          14.60671795       13.91403410       22.49109879
C          15.41064467       15.05200553       22.33745205
C          14.88569249       16.32346881       21.97503041
C          13.54617100       16.43742836       21.58456333
C          12.74607725       15.26754964       21.75536398
C          12.78522049       12.79935606       21.55997851
C          13.95177183       11.83269555       21.39390314
C          15.06770562       12.59874037       21.95278509
C          16.30837216       12.38289688       21.38248855
C          16.75644149       14.89309757       21.70030360
C          15.86513292       16.93792198       20.96771268
C          15.46531695       17.66173028       19.90621937
C          14.03906239       17.86823298       19.61755753
C          13.07906943       17.23906404       20.45181818
C          11.86290869       16.56170410       19.87207499
C          11.77145726       15.33942475       20.68024749
C          11.35058367       14.13536467       20.08063362
C          11.79971906       12.81609508       20.56047219
C          14.10041943       11.05293668       20.23315318
C          13.07623358       11.08748665       19.15523882
C          11.91279594       11.91855813       19.28993054
C          11.45546144       12.70870871       18.06317326
C          11.15797913       14.05658572       18.61366848
C          11.26870645       15.22456837       17.90398920
C          11.73940336       16.47985366       18.49220742
C          12.67880029       17.16369375       17.64686146
C          13.83535440       17.85868713       18.19718112
C          16.97847943       16.08671700       20.90754553
C          16.45330632       16.01793964       16.29963382
C          17.46410105       15.91158994       17.34850366
C          18.03103906       14.64332487       17.80487972
C          17.59492852       13.44394255       17.18796986
C          16.59709439       13.55827261       16.10079589
C          14.62837965       14.87667015       15.40566417
C          14.12186112       16.20587183       15.82945593
C          15.29801729       16.85821949       16.44441391
C          15.16844451       17.66856982       17.58905646
C          16.12697993       17.57841676       18.62451794
C          17.20048092       16.68428680       18.52113022
C          18.11346785       14.65564178       19.23004034
C          17.87225107       13.48974363       19.94369968
C          17.52034689       12.23159890       19.33977046
C          17.32867526       12.19250704       17.91477216
C          16.18394326       11.54267679       17.32614782
C          15.71822719       12.34559025       16.18989030
C          14.34441725       12.46462780       15.98690517
C          13.82550025       13.80025565       15.59697573
C          12.87539392       16.30299475       16.44632840
C          11.97740259       15.10813355       16.61691985
C          12.38806546       13.90655057       16.10587250
C          12.19395570       12.66183595       16.84591702
C          13.37186322       11.77346317       16.75225328
C          13.81429585       11.00646447       17.86548724
C          15.20465226       10.92720538       18.19974437
C          15.42261189       10.91087166       19.63512710
C          16.54651278       11.57115911       20.17056672
C          17.67519307       15.93576062       19.67219199
C          17.17851002       13.61825454       21.20639801
C          16.05215645       14.75323361       15.69014756
176
MD Time 1715.67
C          10.83784273       13.19275830       10.09002665
C           9.06901558       11.56133565       10.02621257
C           9.99678126       10.52607680       10.00915836
C          11.36831883       10.80964531       10.16716118
C          11.76895259       12.13728019       10.12430270
C          13.06892602       12.71728288       10.03874799
N          12.99453142       14.15300702        9.97726463
N          14.19648447       12.06027820        9.86629501
N          17.64704902       15.41041829        8.87554949
C          15.38230992       12.58021248        9.47370805
C          16.60724618       11.89720288        9.16469630
C          16.95595211       10.54806590        9.25171986
C          18.27925597       10.11187123        9.15131551
C          19.26460810       11.09885231        8.77282384
C          18.92149727       12.48476231        8.68274973
C          17.59491781       12.90959431        8.80261155
C          16.99369494       14.22677837        9.03240133
N          15.64485025       13.96323473        9.39967943
C          11.61262523       14.41405080       10.08166057
C           9.49784872       12.92420878        9.99861061
C          17.11868083       16.62711240        9.03840879
C          19.28808609       18.04189085        8.65032019
C          13.39190215       18.38433511       10.17002767
C          12.15745173       19.10963940       10.22697337
C          11.84028714       20.49391550       10.33026000
C          10.53879010       20.87097031       10.35354004
C           9.50944647       19.86671594       10.22704723
C           9.74019633       18.53372975       10.22210893
C          11.10079684       18.16778900       10.17566090
C          11.71151126       16.76509889       10.10942752
N          13.09988124       17.01804485       10.05224694
N          11.07992333       15.60187886       10.04541117
C          17.92905943       17.84910108        9.00792125
C          19.77519710       19.35677786        8.64432722
C          18.90700999       20.36718079        9.04378746
C          17.53868517       20.20126827        9.43336909
C          17.03405114       18.88923942        9.44292140
C          15.71876290       18.27636507        9.70010026
N          15.78420907       16.94985990        9.43965838
N          14.60988076       18.97175322       10.12401881
H          13.74970405       16.22412735       10.07992167
H          14.86347840       14.62082031        9.77117657
H          10.24258834       21.93169105       10.27843216
H          12.64351828       21.24068076       10.31545500
H          16.86423177       20.99759747        9.72093208
H          19.32415146       21.37327418        9.16308489
H          20.82138172       19.45041230        8.38585236
H          19.91078875       17.16570288        8.42530363
H          19.63246007       13.23774108        8.37554422
H          20.33875538       10.82958293        8.77284314
H          18.52236574        9.04527297        9.31949972
H          16.14848400        9.90739415        9.57383867
H          12.11360496       10.02603113       10.34552301
H           9.68324160        9.49372828       10.05800390
H           8.02974165       11.27763579        9.93903745
H           8.72651694       13.73513108       10.03916258
H           8.88755564       17.86995319       10.07336907
H           8.54525062       20.27393661       10.17504358
C          10.24542015       11.75379559       13.22020379
C           8.52000316       10.01563058       13.33007247
C           9.54300493        9.02108045       13.33967374
C          10.89983765        9.41494751       13.44692043
C          11.22238953       10.77032244       13.32170304
C          12.53482948       11.44918570       13.26827941
N          12.31538151       12.80537410       13.00960577
N          13.76768120       10.90514168       13.29083706
N          17.23434440       14.22651284       12.19672736
C          14.92436356       11.50231688       12.94003783
C          16.26681409       10.85296611       12.88339245
C          16.52973518        9.48188036       13.10902200
C          17.88345207        9.13399512       13.16961954
C          18.91123731       10.07041252       12.77530598
C          18.59944067       11.39345875       12.43495586
C          17.26665834       11.79390289       12.56639665
C          16.57738901       13.09546446       12.48760683
N          15.20338960       12.90122757       12.70864839
C          10.96379291       13.04506224       13.06737738
C           8.84146395       11.37156263       13.18701383
C          16.69108880       15.42510501       12.41318596
C          18.70126943       17.06104641       12.13682108
C          12.76339671       16.98448997       13.14738478
C          11.51461919       17.69134562       13.32249466
C          11.26615550       19.06561552       13.52145674
C           9.94313094       19.47688758       13.67316282
C           8.84920551       18.56392543       13.44901049
C           9.09674608       17.18364636       13.17955804
C          10.44385409       16.74655192       13.11068042
C          11.04940950       15.40997915       13.06230048
N          12.43092042       15.64580086       12.99316243
N          10.43064558       14.24485448       12.99412917
C          17.38201456       16.70242138       12.50964415
C          19.10074106       18.43242265       12.26118802
C          18.09304103       19.39191426       12.63122812
C          16.75649414       19.03746961       12.92137107
C          16.41080271       17.68664230       12.87404103
C          15.16460283       16.96309597       12.84510423
N          15.32459486       15.60143025       12.62460589
N          13.95285124       17.53876609       13.13169874
H          13.13830050       14.93148488       12.93238464
H          14.53239068       13.65415021       12.49593249
H           9.72611894       20.54557603       13.68585662
H          12.10678903       19.73355848       13.73252708
H          15.97902077       19.80540214       13.04005340
H          18.35570282       20.45502282       12.70545488
H          20.10375510       18.80003402       11.98305774
H          19.42450689       16.37078153       11.72724754
H          19.44536575       11.98319938       12.10983285
H          19.97667003        9.73059067       12.85445284
H          18.20927979        8.11773292       13.24860945
H          15.75642811        8.76412890       13.37946855
H          11.67934505        8.64051435       13.52727585
H           9.35784161        7.98705156       13.53115640
H           7.48721478        9.65982032       13.26954028
H           8.06186359       12.11896472       13.18295021
H           8.29770314       16.48227043       12.90529778
H           7.82794421       18.95185772       13.53029976
C          13.21531457       14.04986826       22.21575547
C          14.60465811       13.91631243       22.49177266
C          15.41337528       15.04983265       22.33568375
C          14.88074353       16.32069036       21.96984279
C          13.54432807       16.43653138       21.58569124
C          12.74613344       15.26496343       21.75892870
C          12.78793540       12.79916545       21.56058170
C          13.95107049       11.83573556       21.39536245
C          15.06940211       12.59960615       21.95231454
C          16.30395777       12.38526897       21.38474389
C          16.75570595       14.89064577       21.69873742
C          15.86123199       16.93539236       20.97013779
C          15.46870699       17.65959755       19.90931471
C          14.04071576       17.86883987       19.62378001
C          13.07684339       17.23580912       20.45489982
C          11.86049280       16.55972803       19.87016984
C          11.77144530       15.33849014       20.68485806
C          11.34965388       14.13707837       20.08094660
C          11.79901522       12.81493267       20.56185924
C          14.10158252       11.05413656       20.23041617
C          13.07473571       11.08859217       19.15213346
C          11.91426894       11.91748915       19.29308158
C          11.45230570       12.70980754       18.06371562
C          11.16108180       14.05510701       18.61783379
C          11.26406795       15.22360720       17.90191720
C          11.74110021       16.47848640       18.49202801
C          12.67685522       17.16620203       17.64908555
C          13.83741460       17.85835055       18.19982065
C          16.97872246       16.08432380       20.90791685
C          16.45484362       16.02039240       16.30242032
C          17.46550082       15.90945668       17.34993855
C          18.02857028       14.65096876       17.80219875
C          17.59442312       13.44387220       17.19011089
C          16.60052990       13.55707796       16.09876843
C          14.62308864       14.87574997       15.40341905
C          14.12753945       16.20922169       15.83152812
C          15.29495540       16.85990594       16.44521753
C          15.17089419       17.66959018       17.59012541
C          16.12763159       17.57832133       18.62642292
C          17.20431767       16.68494783       18.52440762
C          18.11768419       14.65665514       19.23421135
C          17.87237478       13.48985931       19.94484123
C          17.52376676       12.23062563       19.34064013
C          17.33067295       12.19175044       17.91567266
C          16.18956736       11.54126818       17.32442503
C          15.72217901       12.34517337       16.18699669
C          14.34558291       12.46348391       15.98362448
C          13.82554184       13.79994185       15.59589817
C          12.87423833       16.29833574       16.44955694
C          11.97806119       15.10741170       16.61839614
C          12.38821689       13.91160493       16.10564282
C          12.19350517       12.66540370       16.84455466
C          13.37548822       11.77530055       16.75374835
C          13.81138517       11.00861975       17.86411094
C          15.20122051       10.92476437       18.19740898
C          15.42346731       10.90997991       19.63685070
C          16.54759132       11.57451434       20.16819396
C          17.67820416       15.93398285       19.67318162
C          17.17463748       13.62208545       21.21013586
C          16.05355134       14.75459823       15.69077298
176
MD Time 1736.34
C          10.83802635       13.19433775       10.08934688
C           9.06895999       11.56463799       10.02104956
C          10.00346782       10.52676370       10.00665810
C          11.37128854       10.80807390       10.16920687
C          11.77094772       12.13572426       10.12402191
C          13.06745341       12.72115585       10.03650769
N          12.99369555       14.15124155        9.97838822
N          14.19676241       12.06234034        9.86451063
N          17.64483265       15.41388479        8.87015077
C          15.38044638       12.58280962        9.47410516
C          16.60910106       11.89762429        9.16398696
C          16.95164261       10.54884178        9.25139099
C          18.27756840       10.11286089        9.14867161
C          19.26718281       11.09498671        8.77091616
C          18.91987266       12.48401645        8.68139514
C          17.59835480       12.90761243        8.79853341
C          16.99350528       14.22593105        9.02506132
N          15.64355091       13.96307086        9.39703249
C          11.61422769       14.41582201       10.07901509
C           9.49556233       12.92457486        9.99413910
C          17.11960387       16.62996453        9.03853372
C          19.28758837       18.03972845        8.65116412
C          13.39129152       18.38103061       10.17207334
C          12.15889911       19.10900632       10.22877540
C          11.84536682       20.49599606       10.33226061
C          10.54069784       20.87077312       10.35624766
C           9.50969065       19.86840038       10.22836125
C           9.73828123       18.53142926       10.22241767
C          11.10110125       18.16922974       10.17186888
C          11.71167328       16.76808063       10.10856139
N          13.09707838       17.01890105       10.05347097
N          11.08116123       15.60329392       10.04259893
C          17.93069945       17.84824774        9.00717004
C          19.77633260       19.35595294        8.64616201
C          18.90502346       20.36857055        9.04328704
C          17.53943276       20.20427475        9.43164733
C          17.03672317       18.89245809        9.44171032
C          15.71819735       18.27462466        9.69807046
N          15.78174821       16.94873346        9.43820430
N          14.60798556       18.97285141       10.12476287
H          13.75162186       16.23213879       10.08162141
H          14.86903555       14.62989910        9.76855687
H          10.23200317       21.92545507       10.28788642
H          12.64080609       21.24156137       10.30594709
H          16.87130176       21.00374603        9.73123142
H          19.33136644       21.36941757        9.15591406
H          20.81368948       19.45077397        8.36570685
H          19.90092310       17.17040693        8.43322047
H          19.63941226       13.24861664        8.37237494
H          20.32633351       10.81950823        8.76471763
H          18.53524226        9.04438319        9.31510990
H          16.14736372        9.90384933        9.57844955
H          12.10494956       10.02535621       10.33739253
H           9.67897107        9.48988313       10.06891103
H           8.02468159       11.27422611        9.93033353
H           8.73840997       13.71594347       10.03601584
H           8.88986050       17.87787190       10.07019616
H           8.54686254       20.26959166       10.17286669
C          10.24311159       11.75696697       13.22070135
C           8.51881257       10.01760262       13.32855648
C           9.54531402        9.02764570       13.33665439
C          10.90053197        9.41902581       13.44351383
C          11.22238358       10.77003479       13.32315115
C          12.53296825       11.45051383       13.26605390
N          12.31555374       12.80437946       13.00460068
N          13.76733005       10.90573834       13.29176867
N          17.23372900       14.22990442       12.19833040
C          14.92738375       11.50229619       12.94157451
C          16.26803624       10.85004607       12.88027619
C          16.53045588        9.47868075       13.10780335
C          17.87784036        9.13210743       13.17327072
C          18.90958166       10.07163520       12.77211115
C          18.60048431       11.39208233       12.43677580
C          17.26862362       11.79459995       12.56756524
C          16.57757816       13.09498889       12.48404380
N          15.20307159       12.89877892       12.70725060
C          10.96442636       13.04439069       13.06803583
C           8.84314802       11.37485999       13.18752912
C          16.68576223       15.42132789       12.41449989
C          18.69945092       17.06341083       12.14134915
C          12.76073528       16.98313100       13.15044642
C          11.51496336       17.69213538       13.32342265
C          11.26565674       19.06834827       13.52159780
C           9.94316714       19.47711886       13.67315978
C           8.85245541       18.56535985       13.45181611
C           9.09535100       17.17825466       13.17999416
C          10.44051346       16.74539310       13.10887179
C          11.04996136       15.41007631       13.06218001
N          12.43280318       15.64293380       12.99365527
N          10.43456517       14.24531314       12.99542682
C          17.38380089       16.70232066       12.51154438
C          19.10233955       18.43476617       12.26466369
C          18.09225783       19.39446998       12.63246928
C          16.75904329       19.03853345       12.91929857
C          16.41046200       17.68704466       12.87235499
C          15.16088957       16.95863829       12.84686565
N          15.32641610       15.60267678       12.62439904
N          13.95433192       17.53740577       13.13347660
H          13.14903823       14.92262300       12.93546645
H          14.53126909       13.65077521       12.50930868
H           9.73615580       20.54594066       13.67546743
H          12.10295248       19.71595217       13.74443591
H          15.97491245       19.80004757       13.04425015
H          18.36118119       20.45521606       12.70567531
H          20.10951495       18.80608543       11.99253820
H          19.42944236       16.36021999       11.73065635
H          19.44205377       11.98977494       12.10304989
H          19.96428248        9.73084941       12.86018102
H          18.21800953        8.11200478       13.26645652
H          15.75520158        8.76687893       13.37577176
H          11.68534517        8.65485946       13.52240348
H           9.36173320        7.98387915       13.53385943
H           7.48266757        9.65549377       13.25833344
H           8.05454480       12.11402181       13.17519109
H           8.28980640       16.48016708       12.91251665
H           7.83112975       18.94952376       13.52741826
C          13.21267380       14.04692931       22.21470238
C          14.60283788       13.91846799       22.49237406
C          15.41640762       15.04745538       22.33395029
C          14.87596136       16.31821336       21.96422957
C          13.54254270       16.43567292       21.58701597
C          12.74578498       15.26262261       21.76230820
C          12.79060904       12.79871765       21.56102961
C          13.95012460       11.83916768       21.39693252
C          15.07095779       12.60031137       21.95192377
C          16.30001220       12.38804404       21.38683844
C          16.75484956       14.88805619       21.69719715
C          15.85723605       16.93274790       20.97326575
C          15.47178288       17.65783079       19.91208814
C          14.04213022       17.86932585       19.63020129
C          13.07457971       17.23256492       20.45786373
C          11.85856442       16.55774456       19.86868235
C          11.77111015       15.33730113       20.68932254
C          11.34866290       14.13857545       20.08118441
C          11.79842259       12.81378980       20.56284168
C          14.10262491       11.05539114       20.22775827
C          13.07316472       11.08984527       19.14910454
C          11.91596319       11.91658004       19.29622644
C          11.44942011       12.71100043       18.06466244
C          11.16394650       14.05350702       18.62224497
C          11.25970706       15.22282068       17.89945540
C          11.74264971       16.47711348       18.49193128
C          12.67526461       17.16871949       17.65111681
C          13.83929692       17.85781640       18.20227697
C          16.97935047       16.08164322       20.90806212
C          16.45673325       16.02253427       16.30539750
C          17.46656804       15.90745954       17.35111442
C          18.02599040       14.65830133       17.79924906
C          17.59383672       13.44390070       17.19203895
C          16.60397583       13.55549062       16.09683753
C          14.61788445       14.87501471       15.40118984
C          14.13335270       16.21241568       15.83376075
C          15.29188339       16.86173319       16.44599693
C          15.17300265       17.67063526       17.59098273
C          16.12854885       17.57813634       18.62849486
C          17.20833692       16.68574259       18.52773141
C          18.12207493       14.65765817       19.23825818
C          17.87253813       13.49002818       19.94627477
C          17.52705928       12.22959982       19.34116331
C          17.33281621       12.19120862       17.91678071
C          16.19491452       11.53977685       17.32281962
C          15.72627501       12.34482729       16.18425352
C          14.34685705       12.46266716       15.98008631
C          13.82507322       13.79922173       15.59478954
C          12.87293646       16.29373694       16.45292578
C          11.97873074       15.10713363       16.61984427
C          12.38891298       13.91624156       16.10532604
C          12.19288964       12.66886577       16.84345840
C          13.37895341       11.77714403       16.75537676
C          13.80822759       11.01085105       17.86286707
C          15.19823602       10.92235778       18.19477750
C          15.42424920       10.90914196       19.63841751
C          16.54843690       11.57782859       20.16611179
C          17.68102465       15.93245187       19.67447099
C          17.17063945       13.62582153       21.21402179
C          16.05486352       14.75624815       15.69135180
